*Heading
** Job name: Job-1 Model name: Model-1
** Generated by: Abaqus/CAE 2023
*Preprint, echo=NO, model=NO, history=NO, contact=NO
**
** PARTS
**
*Part, name=film
*Node
      1,         -7.5,           0.,          1.5
      2,          7.5,           0.,          1.5
      3,          7.5,           0.,         16.5
      4,         -7.5,           0.,         16.5
      5,           9.,           0.,          18.
      6,          -9.,           0.,          18.
      7,          -9.,           0.,           0.
      8,           9.,           0.,           0.
      9,          -7.,           0.,          1.5
     10,         -6.5,           0.,          1.5
     11,          -6.,           0.,          1.5
     12,         -5.5,           0.,          1.5
     13,          -5.,           0.,          1.5
     14,         -4.5,           0.,          1.5
     15,          -4.,           0.,          1.5
     16,         -3.5,           0.,          1.5
     17,          -3.,           0.,          1.5
     18,         -2.5,           0.,          1.5
     19,          -2.,           0.,          1.5
     20,         -1.5,           0.,          1.5
     21,          -1.,           0.,          1.5
     22,         -0.5,           0.,          1.5
     23,           0.,           0.,          1.5
     24,          0.5,           0.,          1.5
     25,           1.,           0.,          1.5
     26,          1.5,           0.,          1.5
     27,           2.,           0.,          1.5
     28,          2.5,           0.,          1.5
     29,           3.,           0.,          1.5
     30,          3.5,           0.,          1.5
     31,           4.,           0.,          1.5
     32,          4.5,           0.,          1.5
     33,           5.,           0.,          1.5
     34,          5.5,           0.,          1.5
     35,           6.,           0.,          1.5
     36,          6.5,           0.,          1.5
     37,           7.,           0.,          1.5
     38,          7.5,           0.,           2.
     39,          7.5,           0.,          2.5
     40,          7.5,           0.,           3.
     41,          7.5,           0.,          3.5
     42,          7.5,           0.,           4.
     43,          7.5,           0.,          4.5
     44,          7.5,           0.,           5.
     45,          7.5,           0.,          5.5
     46,          7.5,           0.,           6.
     47,          7.5,           0.,          6.5
     48,          7.5,           0.,           7.
     49,          7.5,           0.,          7.5
     50,          7.5,           0.,           8.
     51,          7.5,           0.,          8.5
     52,          7.5,           0.,           9.
     53,          7.5,           0.,          9.5
     54,          7.5,           0.,          10.
     55,          7.5,           0.,         10.5
     56,          7.5,           0.,          11.
     57,          7.5,           0.,         11.5
     58,          7.5,           0.,          12.
     59,          7.5,           0.,         12.5
     60,          7.5,           0.,          13.
     61,          7.5,           0.,         13.5
     62,          7.5,           0.,          14.
     63,          7.5,           0.,         14.5
     64,          7.5,           0.,          15.
     65,          7.5,           0.,         15.5
     66,          7.5,           0.,          16.
     67,           7.,           0.,         16.5
     68,          6.5,           0.,         16.5
     69,           6.,           0.,         16.5
     70,          5.5,           0.,         16.5
     71,           5.,           0.,         16.5
     72,          4.5,           0.,         16.5
     73,           4.,           0.,         16.5
     74,          3.5,           0.,         16.5
     75,           3.,           0.,         16.5
     76,          2.5,           0.,         16.5
     77,           2.,           0.,         16.5
     78,          1.5,           0.,         16.5
     79,           1.,           0.,         16.5
     80,          0.5,           0.,         16.5
     81,           0.,           0.,         16.5
     82,         -0.5,           0.,         16.5
     83,          -1.,           0.,         16.5
     84,         -1.5,           0.,         16.5
     85,          -2.,           0.,         16.5
     86,         -2.5,           0.,         16.5
     87,          -3.,           0.,         16.5
     88,         -3.5,           0.,         16.5
     89,          -4.,           0.,         16.5
     90,         -4.5,           0.,         16.5
     91,          -5.,           0.,         16.5
     92,         -5.5,           0.,         16.5
     93,          -6.,           0.,         16.5
     94,         -6.5,           0.,         16.5
     95,          -7.,           0.,         16.5
     96,         -7.5,           0.,          16.
     97,         -7.5,           0.,         15.5
     98,         -7.5,           0.,          15.
     99,         -7.5,           0.,         14.5
    100,         -7.5,           0.,          14.
    101,         -7.5,           0.,         13.5
    102,         -7.5,           0.,          13.
    103,         -7.5,           0.,         12.5
    104,         -7.5,           0.,          12.
    105,         -7.5,           0.,         11.5
    106,         -7.5,           0.,          11.
    107,         -7.5,           0.,         10.5
    108,         -7.5,           0.,          10.
    109,         -7.5,           0.,          9.5
    110,         -7.5,           0.,           9.
    111,         -7.5,           0.,          8.5
    112,         -7.5,           0.,           8.
    113,         -7.5,           0.,          7.5
    114,         -7.5,           0.,           7.
    115,         -7.5,           0.,          6.5
    116,         -7.5,           0.,           6.
    117,         -7.5,           0.,          5.5
    118,         -7.5,           0.,           5.
    119,         -7.5,           0.,          4.5
    120,         -7.5,           0.,           4.
    121,         -7.5,           0.,          3.5
    122,         -7.5,           0.,           3.
    123,         -7.5,           0.,          2.5
    124,         -7.5,           0.,           2.
    125,          8.5,           0.,          18.
    126,           8.,           0.,          18.
    127,          7.5,           0.,          18.
    128,           7.,           0.,          18.
    129,          6.5,           0.,          18.
    130,           6.,           0.,          18.
    131,          5.5,           0.,          18.
    132,           5.,           0.,          18.
    133,          4.5,           0.,          18.
    134,           4.,           0.,          18.
    135,          3.5,           0.,          18.
    136,           3.,           0.,          18.
    137,          2.5,           0.,          18.
    138,           2.,           0.,          18.
    139,          1.5,           0.,          18.
    140,           1.,           0.,          18.
    141,          0.5,           0.,          18.
    142,           0.,           0.,          18.
    143,         -0.5,           0.,          18.
    144,          -1.,           0.,          18.
    145,         -1.5,           0.,          18.
    146,          -2.,           0.,          18.
    147,         -2.5,           0.,          18.
    148,          -3.,           0.,          18.
    149,         -3.5,           0.,          18.
    150,          -4.,           0.,          18.
    151,         -4.5,           0.,          18.
    152,          -5.,           0.,          18.
    153,         -5.5,           0.,          18.
    154,          -6.,           0.,          18.
    155,         -6.5,           0.,          18.
    156,          -7.,           0.,          18.
    157,         -7.5,           0.,          18.
    158,          -8.,           0.,          18.
    159,         -8.5,           0.,          18.
    160,          -9.,           0.,         17.5
    161,          -9.,           0.,          17.
    162,          -9.,           0.,         16.5
    163,          -9.,           0.,          16.
    164,          -9.,           0.,         15.5
    165,          -9.,           0.,          15.
    166,          -9.,           0.,         14.5
    167,          -9.,           0.,          14.
    168,          -9.,           0.,         13.5
    169,          -9.,           0.,          13.
    170,          -9.,           0.,         12.5
    171,          -9.,           0.,          12.
    172,          -9.,           0.,         11.5
    173,          -9.,           0.,          11.
    174,          -9.,           0.,         10.5
    175,          -9.,           0.,          10.
    176,          -9.,           0.,          9.5
    177,          -9.,           0.,           9.
    178,          -9.,           0.,          8.5
    179,          -9.,           0.,           8.
    180,          -9.,           0.,          7.5
    181,          -9.,           0.,           7.
    182,          -9.,           0.,          6.5
    183,          -9.,           0.,           6.
    184,          -9.,           0.,          5.5
    185,          -9.,           0.,           5.
    186,          -9.,           0.,          4.5
    187,          -9.,           0.,           4.
    188,          -9.,           0.,          3.5
    189,          -9.,           0.,           3.
    190,          -9.,           0.,          2.5
    191,          -9.,           0.,           2.
    192,          -9.,           0.,          1.5
    193,          -9.,           0.,           1.
    194,          -9.,           0.,          0.5
    195,         -8.5,           0.,           0.
    196,          -8.,           0.,           0.
    197,         -7.5,           0.,           0.
    198,          -7.,           0.,           0.
    199,         -6.5,           0.,           0.
    200,          -6.,           0.,           0.
    201,         -5.5,           0.,           0.
    202,          -5.,           0.,           0.
    203,         -4.5,           0.,           0.
    204,          -4.,           0.,           0.
    205,         -3.5,           0.,           0.
    206,          -3.,           0.,           0.
    207,         -2.5,           0.,           0.
    208,          -2.,           0.,           0.
    209,         -1.5,           0.,           0.
    210,          -1.,           0.,           0.
    211,         -0.5,           0.,           0.
    212,           0.,           0.,           0.
    213,          0.5,           0.,           0.
    214,           1.,           0.,           0.
    215,          1.5,           0.,           0.
    216,           2.,           0.,           0.
    217,          2.5,           0.,           0.
    218,           3.,           0.,           0.
    219,          3.5,           0.,           0.
    220,           4.,           0.,           0.
    221,          4.5,           0.,           0.
    222,           5.,           0.,           0.
    223,          5.5,           0.,           0.
    224,           6.,           0.,           0.
    225,          6.5,           0.,           0.
    226,           7.,           0.,           0.
    227,          7.5,           0.,           0.
    228,           8.,           0.,           0.
    229,          8.5,           0.,           0.
    230,           9.,           0.,          0.5
    231,           9.,           0.,           1.
    232,           9.,           0.,          1.5
    233,           9.,           0.,           2.
    234,           9.,           0.,          2.5
    235,           9.,           0.,           3.
    236,           9.,           0.,          3.5
    237,           9.,           0.,           4.
    238,           9.,           0.,          4.5
    239,           9.,           0.,           5.
    240,           9.,           0.,          5.5
    241,           9.,           0.,           6.
    242,           9.,           0.,          6.5
    243,           9.,           0.,           7.
    244,           9.,           0.,          7.5
    245,           9.,           0.,           8.
    246,           9.,           0.,          8.5
    247,           9.,           0.,           9.
    248,           9.,           0.,          9.5
    249,           9.,           0.,          10.
    250,           9.,           0.,         10.5
    251,           9.,           0.,          11.
    252,           9.,           0.,         11.5
    253,           9.,           0.,          12.
    254,           9.,           0.,         12.5
    255,           9.,           0.,          13.
    256,           9.,           0.,         13.5
    257,           9.,           0.,          14.
    258,           9.,           0.,         14.5
    259,           9.,           0.,          15.
    260,           9.,           0.,         15.5
    261,           9.,           0.,          16.
    262,           9.,           0.,         16.5
    263,           9.,           0.,          17.
    264,           9.,           0.,         17.5
    265,          -7.,           0.,           2.
    266,         -6.5,           0.,           2.
    267,          -6.,           0.,           2.
    268,         -5.5,           0.,           2.
    269,          -5.,           0.,           2.
    270,         -4.5,           0.,           2.
    271,          -4.,           0.,           2.
    272,         -3.5,           0.,           2.
    273,          -3.,           0.,           2.
    274,         -2.5,           0.,           2.
    275,          -2.,           0.,           2.
    276,         -1.5,           0.,           2.
    277,          -1.,           0.,           2.
    278,         -0.5,           0.,           2.
    279,           0.,           0.,           2.
    280,          0.5,           0.,           2.
    281,           1.,           0.,           2.
    282,          1.5,           0.,           2.
    283,           2.,           0.,           2.
    284,          2.5,           0.,           2.
    285,           3.,           0.,           2.
    286,          3.5,           0.,           2.
    287,           4.,           0.,           2.
    288,          4.5,           0.,           2.
    289,           5.,           0.,           2.
    290,          5.5,           0.,           2.
    291,           6.,           0.,           2.
    292,          6.5,           0.,           2.
    293,           7.,           0.,           2.
    294,          -7.,           0.,          2.5
    295,         -6.5,           0.,          2.5
    296,          -6.,           0.,          2.5
    297,         -5.5,           0.,          2.5
    298,          -5.,           0.,          2.5
    299,         -4.5,           0.,          2.5
    300,          -4.,           0.,          2.5
    301,         -3.5,           0.,          2.5
    302,          -3.,           0.,          2.5
    303,         -2.5,           0.,          2.5
    304,          -2.,           0.,          2.5
    305,         -1.5,           0.,          2.5
    306,          -1.,           0.,          2.5
    307,         -0.5,           0.,          2.5
    308,           0.,           0.,          2.5
    309,          0.5,           0.,          2.5
    310,           1.,           0.,          2.5
    311,          1.5,           0.,          2.5
    312,           2.,           0.,          2.5
    313,          2.5,           0.,          2.5
    314,           3.,           0.,          2.5
    315,          3.5,           0.,          2.5
    316,           4.,           0.,          2.5
    317,          4.5,           0.,          2.5
    318,           5.,           0.,          2.5
    319,          5.5,           0.,          2.5
    320,           6.,           0.,          2.5
    321,          6.5,           0.,          2.5
    322,           7.,           0.,          2.5
    323,          -7.,           0.,           3.
    324,         -6.5,           0.,           3.
    325,          -6.,           0.,           3.
    326,         -5.5,           0.,           3.
    327,          -5.,           0.,           3.
    328,         -4.5,           0.,           3.
    329,          -4.,           0.,           3.
    330,         -3.5,           0.,           3.
    331,          -3.,           0.,           3.
    332,         -2.5,           0.,           3.
    333,          -2.,           0.,           3.
    334,         -1.5,           0.,           3.
    335,          -1.,           0.,           3.
    336,         -0.5,           0.,           3.
    337,           0.,           0.,           3.
    338,          0.5,           0.,           3.
    339,           1.,           0.,           3.
    340,          1.5,           0.,           3.
    341,           2.,           0.,           3.
    342,          2.5,           0.,           3.
    343,           3.,           0.,           3.
    344,          3.5,           0.,           3.
    345,           4.,           0.,           3.
    346,          4.5,           0.,           3.
    347,           5.,           0.,           3.
    348,          5.5,           0.,           3.
    349,           6.,           0.,           3.
    350,          6.5,           0.,           3.
    351,           7.,           0.,           3.
    352,          -7.,           0.,          3.5
    353,         -6.5,           0.,          3.5
    354,          -6.,           0.,          3.5
    355,         -5.5,           0.,          3.5
    356,          -5.,           0.,          3.5
    357,         -4.5,           0.,          3.5
    358,          -4.,           0.,          3.5
    359,         -3.5,           0.,          3.5
    360,          -3.,           0.,          3.5
    361,         -2.5,           0.,          3.5
    362,          -2.,           0.,          3.5
    363,         -1.5,           0.,          3.5
    364,          -1.,           0.,          3.5
    365,         -0.5,           0.,          3.5
    366,           0.,           0.,          3.5
    367,          0.5,           0.,          3.5
    368,           1.,           0.,          3.5
    369,          1.5,           0.,          3.5
    370,           2.,           0.,          3.5
    371,          2.5,           0.,          3.5
    372,           3.,           0.,          3.5
    373,          3.5,           0.,          3.5
    374,           4.,           0.,          3.5
    375,          4.5,           0.,          3.5
    376,           5.,           0.,          3.5
    377,          5.5,           0.,          3.5
    378,           6.,           0.,          3.5
    379,          6.5,           0.,          3.5
    380,           7.,           0.,          3.5
    381,          -7.,           0.,           4.
    382,         -6.5,           0.,           4.
    383,          -6.,           0.,           4.
    384,         -5.5,           0.,           4.
    385,          -5.,           0.,           4.
    386,         -4.5,           0.,           4.
    387,          -4.,           0.,           4.
    388,         -3.5,           0.,           4.
    389,          -3.,           0.,           4.
    390,         -2.5,           0.,           4.
    391,          -2.,           0.,           4.
    392,         -1.5,           0.,           4.
    393,          -1.,           0.,           4.
    394,         -0.5,           0.,           4.
    395,           0.,           0.,           4.
    396,          0.5,           0.,           4.
    397,           1.,           0.,           4.
    398,          1.5,           0.,           4.
    399,           2.,           0.,           4.
    400,          2.5,           0.,           4.
    401,           3.,           0.,           4.
    402,          3.5,           0.,           4.
    403,           4.,           0.,           4.
    404,          4.5,           0.,           4.
    405,           5.,           0.,           4.
    406,          5.5,           0.,           4.
    407,           6.,           0.,           4.
    408,          6.5,           0.,           4.
    409,           7.,           0.,           4.
    410,          -7.,           0.,          4.5
    411,         -6.5,           0.,          4.5
    412,          -6.,           0.,          4.5
    413,         -5.5,           0.,          4.5
    414,          -5.,           0.,          4.5
    415,         -4.5,           0.,          4.5
    416,          -4.,           0.,          4.5
    417,         -3.5,           0.,          4.5
    418,          -3.,           0.,          4.5
    419,         -2.5,           0.,          4.5
    420,          -2.,           0.,          4.5
    421,         -1.5,           0.,          4.5
    422,          -1.,           0.,          4.5
    423,         -0.5,           0.,          4.5
    424,           0.,           0.,          4.5
    425,          0.5,           0.,          4.5
    426,           1.,           0.,          4.5
    427,          1.5,           0.,          4.5
    428,           2.,           0.,          4.5
    429,          2.5,           0.,          4.5
    430,           3.,           0.,          4.5
    431,          3.5,           0.,          4.5
    432,           4.,           0.,          4.5
    433,          4.5,           0.,          4.5
    434,           5.,           0.,          4.5
    435,          5.5,           0.,          4.5
    436,           6.,           0.,          4.5
    437,          6.5,           0.,          4.5
    438,           7.,           0.,          4.5
    439,          -7.,           0.,           5.
    440,         -6.5,           0.,           5.
    441,          -6.,           0.,           5.
    442,         -5.5,           0.,           5.
    443,          -5.,           0.,           5.
    444,         -4.5,           0.,           5.
    445,          -4.,           0.,           5.
    446,         -3.5,           0.,           5.
    447,          -3.,           0.,           5.
    448,         -2.5,           0.,           5.
    449,          -2.,           0.,           5.
    450,         -1.5,           0.,           5.
    451,          -1.,           0.,           5.
    452,         -0.5,           0.,           5.
    453,           0.,           0.,           5.
    454,          0.5,           0.,           5.
    455,           1.,           0.,           5.
    456,          1.5,           0.,           5.
    457,           2.,           0.,           5.
    458,          2.5,           0.,           5.
    459,           3.,           0.,           5.
    460,          3.5,           0.,           5.
    461,           4.,           0.,           5.
    462,          4.5,           0.,           5.
    463,           5.,           0.,           5.
    464,          5.5,           0.,           5.
    465,           6.,           0.,           5.
    466,          6.5,           0.,           5.
    467,           7.,           0.,           5.
    468,          -7.,           0.,          5.5
    469,         -6.5,           0.,          5.5
    470,          -6.,           0.,          5.5
    471,         -5.5,           0.,          5.5
    472,          -5.,           0.,          5.5
    473,         -4.5,           0.,          5.5
    474,          -4.,           0.,          5.5
    475,         -3.5,           0.,          5.5
    476,          -3.,           0.,          5.5
    477,         -2.5,           0.,          5.5
    478,          -2.,           0.,          5.5
    479,         -1.5,           0.,          5.5
    480,          -1.,           0.,          5.5
    481,         -0.5,           0.,          5.5
    482,           0.,           0.,          5.5
    483,          0.5,           0.,          5.5
    484,           1.,           0.,          5.5
    485,          1.5,           0.,          5.5
    486,           2.,           0.,          5.5
    487,          2.5,           0.,          5.5
    488,           3.,           0.,          5.5
    489,          3.5,           0.,          5.5
    490,           4.,           0.,          5.5
    491,          4.5,           0.,          5.5
    492,           5.,           0.,          5.5
    493,          5.5,           0.,          5.5
    494,           6.,           0.,          5.5
    495,          6.5,           0.,          5.5
    496,           7.,           0.,          5.5
    497,          -7.,           0.,           6.
    498,         -6.5,           0.,           6.
    499,          -6.,           0.,           6.
    500,         -5.5,           0.,           6.
    501,          -5.,           0.,           6.
    502,         -4.5,           0.,           6.
    503,          -4.,           0.,           6.
    504,         -3.5,           0.,           6.
    505,          -3.,           0.,           6.
    506,         -2.5,           0.,           6.
    507,          -2.,           0.,           6.
    508,         -1.5,           0.,           6.
    509,          -1.,           0.,           6.
    510,         -0.5,           0.,           6.
    511,           0.,           0.,           6.
    512,          0.5,           0.,           6.
    513,           1.,           0.,           6.
    514,          1.5,           0.,           6.
    515,           2.,           0.,           6.
    516,          2.5,           0.,           6.
    517,           3.,           0.,           6.
    518,          3.5,           0.,           6.
    519,           4.,           0.,           6.
    520,          4.5,           0.,           6.
    521,           5.,           0.,           6.
    522,          5.5,           0.,           6.
    523,           6.,           0.,           6.
    524,          6.5,           0.,           6.
    525,           7.,           0.,           6.
    526,          -7.,           0.,          6.5
    527,         -6.5,           0.,          6.5
    528,          -6.,           0.,          6.5
    529,         -5.5,           0.,          6.5
    530,          -5.,           0.,          6.5
    531,         -4.5,           0.,          6.5
    532,          -4.,           0.,          6.5
    533,         -3.5,           0.,          6.5
    534,          -3.,           0.,          6.5
    535,         -2.5,           0.,          6.5
    536,          -2.,           0.,          6.5
    537,         -1.5,           0.,          6.5
    538,          -1.,           0.,          6.5
    539,         -0.5,           0.,          6.5
    540,           0.,           0.,          6.5
    541,          0.5,           0.,          6.5
    542,           1.,           0.,          6.5
    543,          1.5,           0.,          6.5
    544,           2.,           0.,          6.5
    545,          2.5,           0.,          6.5
    546,           3.,           0.,          6.5
    547,          3.5,           0.,          6.5
    548,           4.,           0.,          6.5
    549,          4.5,           0.,          6.5
    550,           5.,           0.,          6.5
    551,          5.5,           0.,          6.5
    552,           6.,           0.,          6.5
    553,          6.5,           0.,          6.5
    554,           7.,           0.,          6.5
    555,          -7.,           0.,           7.
    556,         -6.5,           0.,           7.
    557,          -6.,           0.,           7.
    558,         -5.5,           0.,           7.
    559,          -5.,           0.,           7.
    560,         -4.5,           0.,           7.
    561,          -4.,           0.,           7.
    562,         -3.5,           0.,           7.
    563,          -3.,           0.,           7.
    564,         -2.5,           0.,           7.
    565,          -2.,           0.,           7.
    566,         -1.5,           0.,           7.
    567,          -1.,           0.,           7.
    568,         -0.5,           0.,           7.
    569,           0.,           0.,           7.
    570,          0.5,           0.,           7.
    571,           1.,           0.,           7.
    572,          1.5,           0.,           7.
    573,           2.,           0.,           7.
    574,          2.5,           0.,           7.
    575,           3.,           0.,           7.
    576,          3.5,           0.,           7.
    577,           4.,           0.,           7.
    578,          4.5,           0.,           7.
    579,           5.,           0.,           7.
    580,          5.5,           0.,           7.
    581,           6.,           0.,           7.
    582,          6.5,           0.,           7.
    583,           7.,           0.,           7.
    584,          -7.,           0.,          7.5
    585,         -6.5,           0.,          7.5
    586,          -6.,           0.,          7.5
    587,         -5.5,           0.,          7.5
    588,          -5.,           0.,          7.5
    589,         -4.5,           0.,          7.5
    590,          -4.,           0.,          7.5
    591,         -3.5,           0.,          7.5
    592,          -3.,           0.,          7.5
    593,         -2.5,           0.,          7.5
    594,          -2.,           0.,          7.5
    595,         -1.5,           0.,          7.5
    596,          -1.,           0.,          7.5
    597,         -0.5,           0.,          7.5
    598,           0.,           0.,          7.5
    599,          0.5,           0.,          7.5
    600,           1.,           0.,          7.5
    601,          1.5,           0.,          7.5
    602,           2.,           0.,          7.5
    603,          2.5,           0.,          7.5
    604,           3.,           0.,          7.5
    605,          3.5,           0.,          7.5
    606,           4.,           0.,          7.5
    607,          4.5,           0.,          7.5
    608,           5.,           0.,          7.5
    609,          5.5,           0.,          7.5
    610,           6.,           0.,          7.5
    611,          6.5,           0.,          7.5
    612,           7.,           0.,          7.5
    613,          -7.,           0.,           8.
    614,         -6.5,           0.,           8.
    615,          -6.,           0.,           8.
    616,         -5.5,           0.,           8.
    617,          -5.,           0.,           8.
    618,         -4.5,           0.,           8.
    619,          -4.,           0.,           8.
    620,         -3.5,           0.,           8.
    621,          -3.,           0.,           8.
    622,         -2.5,           0.,           8.
    623,          -2.,           0.,           8.
    624,         -1.5,           0.,           8.
    625,          -1.,           0.,           8.
    626,         -0.5,           0.,           8.
    627,           0.,           0.,           8.
    628,          0.5,           0.,           8.
    629,           1.,           0.,           8.
    630,          1.5,           0.,           8.
    631,           2.,           0.,           8.
    632,          2.5,           0.,           8.
    633,           3.,           0.,           8.
    634,          3.5,           0.,           8.
    635,           4.,           0.,           8.
    636,          4.5,           0.,           8.
    637,           5.,           0.,           8.
    638,          5.5,           0.,           8.
    639,           6.,           0.,           8.
    640,          6.5,           0.,           8.
    641,           7.,           0.,           8.
    642,          -7.,           0.,          8.5
    643,         -6.5,           0.,          8.5
    644,          -6.,           0.,          8.5
    645,         -5.5,           0.,          8.5
    646,          -5.,           0.,          8.5
    647,         -4.5,           0.,          8.5
    648,          -4.,           0.,          8.5
    649,         -3.5,           0.,          8.5
    650,          -3.,           0.,          8.5
    651,         -2.5,           0.,          8.5
    652,          -2.,           0.,          8.5
    653,         -1.5,           0.,          8.5
    654,          -1.,           0.,          8.5
    655,         -0.5,           0.,          8.5
    656,           0.,           0.,          8.5
    657,          0.5,           0.,          8.5
    658,           1.,           0.,          8.5
    659,          1.5,           0.,          8.5
    660,           2.,           0.,          8.5
    661,          2.5,           0.,          8.5
    662,           3.,           0.,          8.5
    663,          3.5,           0.,          8.5
    664,           4.,           0.,          8.5
    665,          4.5,           0.,          8.5
    666,           5.,           0.,          8.5
    667,          5.5,           0.,          8.5
    668,           6.,           0.,          8.5
    669,          6.5,           0.,          8.5
    670,           7.,           0.,          8.5
    671,          -7.,           0.,           9.
    672,         -6.5,           0.,           9.
    673,          -6.,           0.,           9.
    674,         -5.5,           0.,           9.
    675,          -5.,           0.,           9.
    676,         -4.5,           0.,           9.
    677,          -4.,           0.,           9.
    678,         -3.5,           0.,           9.
    679,          -3.,           0.,           9.
    680,         -2.5,           0.,           9.
    681,          -2.,           0.,           9.
    682,         -1.5,           0.,           9.
    683,          -1.,           0.,           9.
    684,         -0.5,           0.,           9.
    685,           0.,           0.,           9.
    686,          0.5,           0.,           9.
    687,           1.,           0.,           9.
    688,          1.5,           0.,           9.
    689,           2.,           0.,           9.
    690,          2.5,           0.,           9.
    691,           3.,           0.,           9.
    692,          3.5,           0.,           9.
    693,           4.,           0.,           9.
    694,          4.5,           0.,           9.
    695,           5.,           0.,           9.
    696,          5.5,           0.,           9.
    697,           6.,           0.,           9.
    698,          6.5,           0.,           9.
    699,           7.,           0.,           9.
    700,          -7.,           0.,          9.5
    701,         -6.5,           0.,          9.5
    702,          -6.,           0.,          9.5
    703,         -5.5,           0.,          9.5
    704,          -5.,           0.,          9.5
    705,         -4.5,           0.,          9.5
    706,          -4.,           0.,          9.5
    707,         -3.5,           0.,          9.5
    708,          -3.,           0.,          9.5
    709,         -2.5,           0.,          9.5
    710,          -2.,           0.,          9.5
    711,         -1.5,           0.,          9.5
    712,          -1.,           0.,          9.5
    713,         -0.5,           0.,          9.5
    714,           0.,           0.,          9.5
    715,          0.5,           0.,          9.5
    716,           1.,           0.,          9.5
    717,          1.5,           0.,          9.5
    718,           2.,           0.,          9.5
    719,          2.5,           0.,          9.5
    720,           3.,           0.,          9.5
    721,          3.5,           0.,          9.5
    722,           4.,           0.,          9.5
    723,          4.5,           0.,          9.5
    724,           5.,           0.,          9.5
    725,          5.5,           0.,          9.5
    726,           6.,           0.,          9.5
    727,          6.5,           0.,          9.5
    728,           7.,           0.,          9.5
    729,          -7.,           0.,          10.
    730,         -6.5,           0.,          10.
    731,          -6.,           0.,          10.
    732,         -5.5,           0.,          10.
    733,          -5.,           0.,          10.
    734,         -4.5,           0.,          10.
    735,          -4.,           0.,          10.
    736,         -3.5,           0.,          10.
    737,          -3.,           0.,          10.
    738,         -2.5,           0.,          10.
    739,          -2.,           0.,          10.
    740,         -1.5,           0.,          10.
    741,          -1.,           0.,          10.
    742,         -0.5,           0.,          10.
    743,           0.,           0.,          10.
    744,          0.5,           0.,          10.
    745,           1.,           0.,          10.
    746,          1.5,           0.,          10.
    747,           2.,           0.,          10.
    748,          2.5,           0.,          10.
    749,           3.,           0.,          10.
    750,          3.5,           0.,          10.
    751,           4.,           0.,          10.
    752,          4.5,           0.,          10.
    753,           5.,           0.,          10.
    754,          5.5,           0.,          10.
    755,           6.,           0.,          10.
    756,          6.5,           0.,          10.
    757,           7.,           0.,          10.
    758,          -7.,           0.,         10.5
    759,         -6.5,           0.,         10.5
    760,          -6.,           0.,         10.5
    761,         -5.5,           0.,         10.5
    762,          -5.,           0.,         10.5
    763,         -4.5,           0.,         10.5
    764,          -4.,           0.,         10.5
    765,         -3.5,           0.,         10.5
    766,          -3.,           0.,         10.5
    767,         -2.5,           0.,         10.5
    768,          -2.,           0.,         10.5
    769,         -1.5,           0.,         10.5
    770,          -1.,           0.,         10.5
    771,         -0.5,           0.,         10.5
    772,           0.,           0.,         10.5
    773,          0.5,           0.,         10.5
    774,           1.,           0.,         10.5
    775,          1.5,           0.,         10.5
    776,           2.,           0.,         10.5
    777,          2.5,           0.,         10.5
    778,           3.,           0.,         10.5
    779,          3.5,           0.,         10.5
    780,           4.,           0.,         10.5
    781,          4.5,           0.,         10.5
    782,           5.,           0.,         10.5
    783,          5.5,           0.,         10.5
    784,           6.,           0.,         10.5
    785,          6.5,           0.,         10.5
    786,           7.,           0.,         10.5
    787,          -7.,           0.,          11.
    788,         -6.5,           0.,          11.
    789,          -6.,           0.,          11.
    790,         -5.5,           0.,          11.
    791,          -5.,           0.,          11.
    792,         -4.5,           0.,          11.
    793,          -4.,           0.,          11.
    794,         -3.5,           0.,          11.
    795,          -3.,           0.,          11.
    796,         -2.5,           0.,          11.
    797,          -2.,           0.,          11.
    798,         -1.5,           0.,          11.
    799,          -1.,           0.,          11.
    800,         -0.5,           0.,          11.
    801,           0.,           0.,          11.
    802,          0.5,           0.,          11.
    803,           1.,           0.,          11.
    804,          1.5,           0.,          11.
    805,           2.,           0.,          11.
    806,          2.5,           0.,          11.
    807,           3.,           0.,          11.
    808,          3.5,           0.,          11.
    809,           4.,           0.,          11.
    810,          4.5,           0.,          11.
    811,           5.,           0.,          11.
    812,          5.5,           0.,          11.
    813,           6.,           0.,          11.
    814,          6.5,           0.,          11.
    815,           7.,           0.,          11.
    816,          -7.,           0.,         11.5
    817,         -6.5,           0.,         11.5
    818,          -6.,           0.,         11.5
    819,         -5.5,           0.,         11.5
    820,          -5.,           0.,         11.5
    821,         -4.5,           0.,         11.5
    822,          -4.,           0.,         11.5
    823,         -3.5,           0.,         11.5
    824,          -3.,           0.,         11.5
    825,         -2.5,           0.,         11.5
    826,          -2.,           0.,         11.5
    827,         -1.5,           0.,         11.5
    828,          -1.,           0.,         11.5
    829,         -0.5,           0.,         11.5
    830,           0.,           0.,         11.5
    831,          0.5,           0.,         11.5
    832,           1.,           0.,         11.5
    833,          1.5,           0.,         11.5
    834,           2.,           0.,         11.5
    835,          2.5,           0.,         11.5
    836,           3.,           0.,         11.5
    837,          3.5,           0.,         11.5
    838,           4.,           0.,         11.5
    839,          4.5,           0.,         11.5
    840,           5.,           0.,         11.5
    841,          5.5,           0.,         11.5
    842,           6.,           0.,         11.5
    843,          6.5,           0.,         11.5
    844,           7.,           0.,         11.5
    845,          -7.,           0.,          12.
    846,         -6.5,           0.,          12.
    847,          -6.,           0.,          12.
    848,         -5.5,           0.,          12.
    849,          -5.,           0.,          12.
    850,         -4.5,           0.,          12.
    851,          -4.,           0.,          12.
    852,         -3.5,           0.,          12.
    853,          -3.,           0.,          12.
    854,         -2.5,           0.,          12.
    855,          -2.,           0.,          12.
    856,         -1.5,           0.,          12.
    857,          -1.,           0.,          12.
    858,         -0.5,           0.,          12.
    859,           0.,           0.,          12.
    860,          0.5,           0.,          12.
    861,           1.,           0.,          12.
    862,          1.5,           0.,          12.
    863,           2.,           0.,          12.
    864,          2.5,           0.,          12.
    865,           3.,           0.,          12.
    866,          3.5,           0.,          12.
    867,           4.,           0.,          12.
    868,          4.5,           0.,          12.
    869,           5.,           0.,          12.
    870,          5.5,           0.,          12.
    871,           6.,           0.,          12.
    872,          6.5,           0.,          12.
    873,           7.,           0.,          12.
    874,          -7.,           0.,         12.5
    875,         -6.5,           0.,         12.5
    876,          -6.,           0.,         12.5
    877,         -5.5,           0.,         12.5
    878,          -5.,           0.,         12.5
    879,         -4.5,           0.,         12.5
    880,          -4.,           0.,         12.5
    881,         -3.5,           0.,         12.5
    882,          -3.,           0.,         12.5
    883,         -2.5,           0.,         12.5
    884,          -2.,           0.,         12.5
    885,         -1.5,           0.,         12.5
    886,          -1.,           0.,         12.5
    887,         -0.5,           0.,         12.5
    888,           0.,           0.,         12.5
    889,          0.5,           0.,         12.5
    890,           1.,           0.,         12.5
    891,          1.5,           0.,         12.5
    892,           2.,           0.,         12.5
    893,          2.5,           0.,         12.5
    894,           3.,           0.,         12.5
    895,          3.5,           0.,         12.5
    896,           4.,           0.,         12.5
    897,          4.5,           0.,         12.5
    898,           5.,           0.,         12.5
    899,          5.5,           0.,         12.5
    900,           6.,           0.,         12.5
    901,          6.5,           0.,         12.5
    902,           7.,           0.,         12.5
    903,          -7.,           0.,          13.
    904,         -6.5,           0.,          13.
    905,          -6.,           0.,          13.
    906,         -5.5,           0.,          13.
    907,          -5.,           0.,          13.
    908,         -4.5,           0.,          13.
    909,          -4.,           0.,          13.
    910,         -3.5,           0.,          13.
    911,          -3.,           0.,          13.
    912,         -2.5,           0.,          13.
    913,          -2.,           0.,          13.
    914,         -1.5,           0.,          13.
    915,          -1.,           0.,          13.
    916,         -0.5,           0.,          13.
    917,           0.,           0.,          13.
    918,          0.5,           0.,          13.
    919,           1.,           0.,          13.
    920,          1.5,           0.,          13.
    921,           2.,           0.,          13.
    922,          2.5,           0.,          13.
    923,           3.,           0.,          13.
    924,          3.5,           0.,          13.
    925,           4.,           0.,          13.
    926,          4.5,           0.,          13.
    927,           5.,           0.,          13.
    928,          5.5,           0.,          13.
    929,           6.,           0.,          13.
    930,          6.5,           0.,          13.
    931,           7.,           0.,          13.
    932,          -7.,           0.,         13.5
    933,         -6.5,           0.,         13.5
    934,          -6.,           0.,         13.5
    935,         -5.5,           0.,         13.5
    936,          -5.,           0.,         13.5
    937,         -4.5,           0.,         13.5
    938,          -4.,           0.,         13.5
    939,         -3.5,           0.,         13.5
    940,          -3.,           0.,         13.5
    941,         -2.5,           0.,         13.5
    942,          -2.,           0.,         13.5
    943,         -1.5,           0.,         13.5
    944,          -1.,           0.,         13.5
    945,         -0.5,           0.,         13.5
    946,           0.,           0.,         13.5
    947,          0.5,           0.,         13.5
    948,           1.,           0.,         13.5
    949,          1.5,           0.,         13.5
    950,           2.,           0.,         13.5
    951,          2.5,           0.,         13.5
    952,           3.,           0.,         13.5
    953,          3.5,           0.,         13.5
    954,           4.,           0.,         13.5
    955,          4.5,           0.,         13.5
    956,           5.,           0.,         13.5
    957,          5.5,           0.,         13.5
    958,           6.,           0.,         13.5
    959,          6.5,           0.,         13.5
    960,           7.,           0.,         13.5
    961,          -7.,           0.,          14.
    962,         -6.5,           0.,          14.
    963,          -6.,           0.,          14.
    964,         -5.5,           0.,          14.
    965,          -5.,           0.,          14.
    966,         -4.5,           0.,          14.
    967,          -4.,           0.,          14.
    968,         -3.5,           0.,          14.
    969,          -3.,           0.,          14.
    970,         -2.5,           0.,          14.
    971,          -2.,           0.,          14.
    972,         -1.5,           0.,          14.
    973,          -1.,           0.,          14.
    974,         -0.5,           0.,          14.
    975,           0.,           0.,          14.
    976,          0.5,           0.,          14.
    977,           1.,           0.,          14.
    978,          1.5,           0.,          14.
    979,           2.,           0.,          14.
    980,          2.5,           0.,          14.
    981,           3.,           0.,          14.
    982,          3.5,           0.,          14.
    983,           4.,           0.,          14.
    984,          4.5,           0.,          14.
    985,           5.,           0.,          14.
    986,          5.5,           0.,          14.
    987,           6.,           0.,          14.
    988,          6.5,           0.,          14.
    989,           7.,           0.,          14.
    990,          -7.,           0.,         14.5
    991,         -6.5,           0.,         14.5
    992,          -6.,           0.,         14.5
    993,         -5.5,           0.,         14.5
    994,          -5.,           0.,         14.5
    995,         -4.5,           0.,         14.5
    996,          -4.,           0.,         14.5
    997,         -3.5,           0.,         14.5
    998,          -3.,           0.,         14.5
    999,         -2.5,           0.,         14.5
   1000,          -2.,           0.,         14.5
   1001,         -1.5,           0.,         14.5
   1002,          -1.,           0.,         14.5
   1003,         -0.5,           0.,         14.5
   1004,           0.,           0.,         14.5
   1005,          0.5,           0.,         14.5
   1006,           1.,           0.,         14.5
   1007,          1.5,           0.,         14.5
   1008,           2.,           0.,         14.5
   1009,          2.5,           0.,         14.5
   1010,           3.,           0.,         14.5
   1011,          3.5,           0.,         14.5
   1012,           4.,           0.,         14.5
   1013,          4.5,           0.,         14.5
   1014,           5.,           0.,         14.5
   1015,          5.5,           0.,         14.5
   1016,           6.,           0.,         14.5
   1017,          6.5,           0.,         14.5
   1018,           7.,           0.,         14.5
   1019,          -7.,           0.,          15.
   1020,         -6.5,           0.,          15.
   1021,          -6.,           0.,          15.
   1022,         -5.5,           0.,          15.
   1023,          -5.,           0.,          15.
   1024,         -4.5,           0.,          15.
   1025,          -4.,           0.,          15.
   1026,         -3.5,           0.,          15.
   1027,          -3.,           0.,          15.
   1028,         -2.5,           0.,          15.
   1029,          -2.,           0.,          15.
   1030,         -1.5,           0.,          15.
   1031,          -1.,           0.,          15.
   1032,         -0.5,           0.,          15.
   1033,           0.,           0.,          15.
   1034,          0.5,           0.,          15.
   1035,           1.,           0.,          15.
   1036,          1.5,           0.,          15.
   1037,           2.,           0.,          15.
   1038,          2.5,           0.,          15.
   1039,           3.,           0.,          15.
   1040,          3.5,           0.,          15.
   1041,           4.,           0.,          15.
   1042,          4.5,           0.,          15.
   1043,           5.,           0.,          15.
   1044,          5.5,           0.,          15.
   1045,           6.,           0.,          15.
   1046,          6.5,           0.,          15.
   1047,           7.,           0.,          15.
   1048,          -7.,           0.,         15.5
   1049,         -6.5,           0.,         15.5
   1050,          -6.,           0.,         15.5
   1051,         -5.5,           0.,         15.5
   1052,          -5.,           0.,         15.5
   1053,         -4.5,           0.,         15.5
   1054,          -4.,           0.,         15.5
   1055,         -3.5,           0.,         15.5
   1056,          -3.,           0.,         15.5
   1057,         -2.5,           0.,         15.5
   1058,          -2.,           0.,         15.5
   1059,         -1.5,           0.,         15.5
   1060,          -1.,           0.,         15.5
   1061,         -0.5,           0.,         15.5
   1062,           0.,           0.,         15.5
   1063,          0.5,           0.,         15.5
   1064,           1.,           0.,         15.5
   1065,          1.5,           0.,         15.5
   1066,           2.,           0.,         15.5
   1067,          2.5,           0.,         15.5
   1068,           3.,           0.,         15.5
   1069,          3.5,           0.,         15.5
   1070,           4.,           0.,         15.5
   1071,          4.5,           0.,         15.5
   1072,           5.,           0.,         15.5
   1073,          5.5,           0.,         15.5
   1074,           6.,           0.,         15.5
   1075,          6.5,           0.,         15.5
   1076,           7.,           0.,         15.5
   1077,          -7.,           0.,          16.
   1078,         -6.5,           0.,          16.
   1079,          -6.,           0.,          16.
   1080,         -5.5,           0.,          16.
   1081,          -5.,           0.,          16.
   1082,         -4.5,           0.,          16.
   1083,          -4.,           0.,          16.
   1084,         -3.5,           0.,          16.
   1085,          -3.,           0.,          16.
   1086,         -2.5,           0.,          16.
   1087,          -2.,           0.,          16.
   1088,         -1.5,           0.,          16.
   1089,          -1.,           0.,          16.
   1090,         -0.5,           0.,          16.
   1091,           0.,           0.,          16.
   1092,          0.5,           0.,          16.
   1093,           1.,           0.,          16.
   1094,          1.5,           0.,          16.
   1095,           2.,           0.,          16.
   1096,          2.5,           0.,          16.
   1097,           3.,           0.,          16.
   1098,          3.5,           0.,          16.
   1099,           4.,           0.,          16.
   1100,          4.5,           0.,          16.
   1101,           5.,           0.,          16.
   1102,          5.5,           0.,          16.
   1103,           6.,           0.,          16.
   1104,          6.5,           0.,          16.
   1105,           7.,           0.,          16.
   1106,  -6.61818171,           0.,  0.962212324
   1107,   7.89047241,           0.,   2.43746781
   1108,  -7.70136356,           0.,   1.03730106
   1109,  -5.57324743,           0.,   1.12080479
   1110,  -4.62498951,           0.,  0.978572428
   1111,   -3.3877728,           0.,   1.01729417
   1112,  -2.46932435,           0.,   1.13675988
   1113,  -1.42463374,           0.,  0.964523852
   1114, -0.341211677,           0.,   1.00809944
   1115,  0.668547451,           0.,   1.03895867
   1116,   1.81920505,           0.,   1.08651793
   1117,   2.81475925,           0.,  0.992671371
   1118,   3.85375047,           0.,  0.983120978
   1119,   4.97732639,           0.,   1.16365051
   1120,   5.98186016,           0.,   1.11112905
   1121,   6.93442822,           0.,   1.15345204
   1122,   7.89582014,           0.,   1.20078659
   1123,  -7.86774158,           0.,   2.05084753
   1124,  -7.83836651,           0.,   2.97587299
   1125,  -7.96743393,           0.,   3.89565086
   1126,  -8.03316402,           0.,   5.13424826
   1127,  -8.01168537,           0.,   6.17382574
   1128,  -7.98377275,           0.,   7.18455505
   1129,  -7.90689421,           0.,   8.33893299
   1130,   -7.9940033,           0.,    9.3381691
   1131,  -8.03526878,           0.,   10.4250164
   1132,  -7.86203241,           0.,   11.4696608
   1133,  -7.98236847,           0.,   12.3880577
   1134,  -8.02211857,           0.,   13.6251879
   1135,  -7.87984705,           0.,   14.5733576
   1136,  -8.03772736,           0.,   15.6179934
   1137,   7.79560995,           0.,   16.8884373
   1138,   6.59399176,           0.,   17.0446548
   1139,   5.49497032,           0.,   16.8905258
   1140,   4.49248362,           0.,   16.9075985
   1141,   3.43815064,           0.,   16.8905067
   1142,   2.41457105,           0.,   16.9911537
   1143,   1.45798314,           0.,   16.8969803
   1144,  0.349581152,           0.,   16.9992199
   1145, -0.566483974,           0.,   16.8642902
   1146,  -2.00486779,           0.,   16.8673038
   1147,  -2.99646235,           0.,   16.8740692
   1148,  -3.98931026,           0.,   16.8987064
   1149,   -5.0414772,           0.,   16.8782959
   1150,  -5.99973822,           0.,   16.8553581
   1151,  -6.94317245,           0.,   16.8742619
   1152,  -7.96174097,           0.,   16.7020378
   1153,   7.82518053,           0.,   15.9483318
   1154,   7.84632206,           0.,    15.046051
   1155,   8.00544643,           0.,    14.121315
   1156,   7.96770573,           0.,   12.9107208
   1157,   7.85546398,           0.,   11.9844456
   1158,   7.95658636,           0.,   10.9151564
   1159,   7.96421623,           0.,   9.67096615
   1160,   7.99157381,           0.,   8.65863228
   1161,      8.03827,           0.,   7.57617235
   1162,   7.86544895,           0.,   6.52779198
   1163,   7.97688627,           0.,   5.60042763
   1164,   8.02678299,           0.,    4.3648963
   1165,   7.94719648,           0.,    3.3535018
   1166,  -7.38659096,           0.,   16.9713058
   1167,   6.47684765,           0.,   1.13726151
   1168,  -6.48085785,           0.,   16.8587112
   1169,    7.8667779,           0.,   12.4562387
   1170,   3.32808065,           0.,  0.989015639
   1171,   7.87445402,           0.,     6.058815
   1172,  -8.02110767,           0.,   5.66368818
   1173,  -3.49164701,           0.,   16.8798752
   1174,   2.65270996,           0.,  0.512361646
   1175,   4.18367958,           0.,   0.45541957
   1176,   5.51904917,           0.,  0.400230736
   1177,   6.01136923,           0.,  0.375031203
   1178,   6.49511814,           0.,   0.38638714
   1179,   6.98858261,           0.,  0.415299952
   1180,   7.49326277,           0.,  0.473755628
   1181,   1.48778534,           0.,  0.645370662
   1182,  0.338280737,           0.,  0.531781971
   1183, -0.676738024,           0.,  0.500184655
   1184,    -2.034091,           0.,  0.361862093
   1185,  -1.99044466,           0.,   1.10102367
   1186,   -3.0879519,           0.,  0.519978285
   1187,  -2.93196177,           0.,   1.12413669
   1188,   -8.5420866,           0.,    1.5952729
   1189,  -8.40893841,           0.,  0.561505973
   1190,  -4.83951902,           0.,  0.494309932
   1191,  -3.99139619,           0.,  0.266604483
   1192,  -7.96955347,           0.,   1.60918152
   1193,  -8.57875061,           0.,   3.00663733
   1194,  -7.84652138,           0.,   2.50828218
   1195,  -8.56418037,           0.,   4.13932133
   1196,  -7.85972357,           0.,    3.4419167
   1197,  -7.89827394,           0.,   10.9902658
   1198,  -7.87490273,           0.,   11.9330988
   1199,   -8.5064764,           0.,   13.8398247
   1200,  -8.73374748,           0.,   12.9915066
   1201,  -8.63232613,           0.,   10.5811768
   1202,  -8.49956226,           0.,   9.67612076
   1203,  -8.45814991,           0.,   8.63794231
   1204,  -8.46423531,           0.,   7.37290955
   1205,  -8.50687218,           0.,   5.83176279
   1206,  -8.60064125,           0.,   14.9797878
   1207,  -8.48878956,           0.,   16.3477249
   1208,  -6.94748592,           0.,   17.6069088
   1209,  -7.40183163,           0.,   17.5466709
   1210,  -8.43778419,           0.,   17.4094944
   1211,  -2.49873567,           0.,   17.6254501
   1212,  -3.96629143,           0.,   17.6397476
   1213,  -1.50522768,           0.,   17.6132355
   1214, -0.413324714,           0.,    17.454916
   1215,  0.633875549,           0.,    17.550045
   1216,   2.06181812,           0.,   17.5067329
   1217,   1.93425846,           0.,   16.8882561
   1218,   3.01583314,           0.,   17.6142025
   1219,   2.96312666,           0.,   16.8870583
   1220,   8.56303787,           0.,    15.989521
   1221,   8.45266438,           0.,   16.9736748
   1222,   5.00168228,           0.,   17.6411495
   1223,   4.03903866,           0.,   17.6273918
   1224,   7.81373882,           0.,    16.306509
   1225,   8.43384647,           0.,   14.8934298
   1226,   8.55883789,           0.,   15.4821682
   1227,   7.82873011,           0.,   15.5039911
   1228,   8.56513786,           0.,   13.8330641
   1229,   8.49036217,           0.,    14.334981
   1230,   7.93523073,           0.,   14.6198053
   1231,   7.90186024,           0.,   7.01075506
   1232,    8.4738636,           0.,   5.90066528
   1233,   8.72874355,           0.,   5.00439119
   1234,   8.50957298,           0.,   4.17302656
   1235,   8.58959007,           0.,   2.51122403
   1236,    8.5265522,           0.,   1.58770669
   1237,   8.47148991,           0.,   0.53763175
   1238,  -4.92646027,           0.,   17.4984627
   1239,  -5.49769783,           0.,   17.5954399
   1240,  -5.99641562,           0.,   17.6136227
   1241,  -6.48090506,           0.,    17.618063
   1242,   4.97451544,           0.,  0.536018074
   1243,   8.63846397,           0.,   6.96528769
   1244,   8.49990654,           0.,   8.32329369
   1245,   8.46898174,           0.,   9.33791256
   1246,   8.39181137,           0.,   10.4655495
   1247,   8.60994911,           0.,   11.5287743
   1248,  -7.34762812,           0.,  0.510729492
   1249,  -6.45626879,           0.,  0.379051387
   1250,   7.29806471,           0.,   1.17127383
   1251,  -8.47990608,           0.,   12.0872278
   1252,   7.35540771,           0.,   17.4795094
   1253,   6.43664312,           0.,   17.6351204
   1254,   2.31214619,           0.,   1.01506627
   1255,  -3.99625945,           0.,  0.873704076
   1256,  -6.05159664,           0.,   1.09987652
   1257,   -7.1620326,           0.,   1.00455678
   1258,  -7.99967146,           0.,   6.67410421
   1259,  -8.12657356,           0.,   12.9964161
   1260,  -7.90049171,           0.,   15.0518017
   1261,  -7.99508238,           0.,   16.1620998
   1262,  -2.50052738,           0.,   16.8711414
   1263,    3.9222343,           0.,   17.0086613
   1264,   6.00257301,           0.,   16.9163036
   1265,   7.87539768,           0.,   11.4939833
   1266,   8.12267876,           0.,   4.99548531
   1267,   7.87197971,           0.,   2.92048097
   1268,   8.01587963,           0.,   1.84664822
   1269,   7.89568281,           0.,   17.4422073
   1270,   6.86573315,           0.,   17.5469379
   1271,   5.96991634,           0.,   17.6464729
   1272,   5.48997307,           0.,   17.6416912
   1273,   4.51923704,           0.,   17.6456375
   1274,   3.55752182,           0.,   17.5134201
   1275,    2.5416131,           0.,   17.6115952
   1276,   1.52376652,           0.,      17.6159
   1277,   1.05813587,           0.,   17.6254253
   1278,  0.147963658,           0.,   17.4985218
   1279,  -0.99972266,           0.,   17.5849171
   1280,  -2.00201726,           0.,    17.621418
   1281,  -2.99401236,           0.,   17.6295204
   1282,  -3.48585844,           0.,   17.6351662
   1283,  -4.44184971,           0.,   17.6180859
   1284,  -7.86108351,           0.,   17.3222828
   1285,  -8.32042789,           0.,   1.13711345
   1286,  -8.60451889,           0.,   2.05094838
   1287,  -8.60653687,           0.,   2.51642871
   1288,  -8.46081257,           0.,   3.59405661
   1289,  -8.72653008,           0.,    4.4924798
   1290,  -8.51726151,           0.,   5.32105398
   1291,  -8.49991131,           0.,   6.33913612
   1292,  -8.48563766,           0.,   6.84435749
   1293,  -8.35788345,           0.,   8.00419712
   1294,  -8.48060131,           0.,   9.16540432
   1295,  -8.54977608,           0.,   10.1526852
   1296,  -8.63822556,           0.,   11.0317364
   1297,  -8.60404587,           0.,   11.5123138
   1298,  -8.58008099,           0.,   12.6387892
   1299,  -8.46062565,           0.,    14.404624
   1300,  -8.62067127,           0.,   15.4553576
   1301,  -8.54734039,           0.,   15.8755713
   1302,  -8.45694447,           0.,   16.8635635
   1303,  -7.86316729,           0.,  0.542395771
   1304,  -6.87575388,           0.,  0.452373505
   1305,  -5.97751713,           0.,  0.399820089
   1306,  -5.40395403,           0.,  0.540089786
   1307,  -3.63889909,           0.,  0.420024425
   1308,    -2.512573,           0.,  0.395316601
   1309,   -1.5815624,           0.,  0.369001508
   1310,  -1.15262306,           0.,  0.450613171
   1311, -0.169704303,           0.,  0.514958501
   1312,   0.86220181,           0.,  0.552243769
   1313,   2.12664342,           0.,  0.539433181
   1314,   3.16533303,           0.,  0.506898224
   1315,   3.67842102,           0.,  0.498326629
   1316,   4.53369904,           0.,  0.318448186
   1317,   7.97664356,           0.,  0.542551637
   1318,   8.45888519,           0.,   1.08961833
   1319,   8.60728359,           0.,    2.0241363
   1320,   8.45032883,           0.,   3.08827353
   1321,   8.48804855,           0.,   3.65205646
   1322,   8.58244228,           0.,   4.66496658
   1323,   8.60203552,           0.,   6.48349953
   1324,   8.63270378,           0.,   7.41772747
   1325,     8.550313,           0.,   7.84787369
   1326,   8.48522854,           0.,    8.8302269
   1327,   8.45627499,           0.,   9.85904789
   1328,   8.57782841,           0.,   11.0303583
   1329,   8.58462906,           0.,    12.024847
   1330,    8.4618187,           0.,    12.612772
   1331,   8.72194672,           0.,   13.4953938
   1332,   8.51719379,           0.,   16.4951134
   1333,   5.39286947,           0.,   1.00923598
   1334,   7.99873114,           0.,    3.8371799
   1335,  -7.95722961,           0.,   14.1333981
   1336,  -5.13305902,           0.,   1.04332423
   1337,  -5.52053738,           0.,   16.8550892
   1338,   4.99731588,           0.,   16.8890896
   1339,    4.4859848,           0.,  0.921600282
   1340,  -8.12118149,           0.,   4.50147152
   1341,   8.11248779,           0.,   13.5046644
   1342,  -4.55398607,           0.,   16.9958153
   1343,  -8.31181145,           0.,   10.6689768
   1344,  -7.90826416,           0.,   7.66806793
   1345,  -7.97634888,           0.,   8.82846546
   1346,   -8.0060606,           0.,   9.85726833
   1347,   7.98324919,           0.,   9.16696262
   1348,   7.77208424,           0.,   10.5140495
   1349,   8.26582432,           0.,   11.1415796
   1350,  0.898449898,           0.,   17.0371475
   1351, -0.138576031,           0.,   16.9456844
   1352,  -1.51255584,           0.,   16.8615589
   1353, -0.857917607,           0.,  0.994718552
   1354,  0.166195288,           0.,    1.0171448
   1355,   1.49146688,           0.,   1.24531353
   1356,   8.00600243,           0.,   8.14235497
   1357,   8.17817688,           0.,   12.3675957
   1358,   8.18057346,           0.,   2.84069085
   1359,   6.34566355,           0.,   17.3230057
   1360,  -8.24814796,           0.,   15.0180855
   1361,  -6.01734257,           0.,  0.752438784
   1362,   5.95524645,           0.,   17.2796383
   1363,   2.98677158,           0.,   17.2477856
   1364,     8.190341,           0.,   6.14830446
   1365,  -2.84148335,           0.,  0.807414889
   1366,  -8.19170666,           0.,   11.8416853
   1367,   7.17437029,           0.,   16.9843502
   1368,  -6.46911383,           0.,   17.2341557
   1369,    8.1749773,           0.,   15.9681559
   1370,  -8.22064304,           0.,   2.51780677
   1371,   6.95594835,           0.,  0.800990403
   1372,   1.83829391,           0.,   17.2127666
   1373,   8.31549168,           0.,   7.33166075
   1374,  -1.66900814,           0.,  0.687740803
   1375,   7.42209911,           0.,  0.908430874
   1376,   8.07811546,           0.,   16.4270401
   1377,   8.18891811,           0.,   15.5186739
   1378,   6.48695326,           0.,  0.767447889
   1379,   8.45725155,           0.,   17.4630947
   1380,   1.15491271,           0.,   1.10377347
   1381,   -7.7577548,           0.,   8.00159836
   1382,   -1.0316062,           0.,   16.8530884
   1383,   7.91398382,           0.,   10.1611662
   1384,   5.48661375,           0.,   17.2676716
   1385,   5.00314999,           0.,   17.2673531
   1386,  -7.24111795,           0.,   17.2432346
   1387,  -6.90208864,           0.,   17.2397213
   1388,  -6.00067091,           0.,   17.2332211
   1389,  -8.23916245,           0.,   1.75508296
   1390,  -8.23323917,           0.,   2.09264565
   1391,  -8.20787239,           0.,   2.96320748
   1392,   6.02294779,           0.,  0.748679519
   1393,    5.6240654,           0.,  0.714084983
   1394,   4.53483343,           0.,    17.276823
   1395,   4.14850187,           0.,   17.3072262
   1396,  -8.17100334,           0.,   3.34844017
   1397,   3.33753848,           0.,   17.2144089
   1398,  -8.58339024,           0.,   4.83119249
   1399,  -8.23577213,           0.,   11.4677773
   1400,   1.13745117,           0.,   17.3067417
   1401, -0.658863366,           0.,   17.1772079
   1402,   -1.0472939,           0.,    17.220787
   1403,  -1.51573825,           0.,   17.2361202
   1404,  -2.00488687,           0.,   17.2431965
   1405,  -2.49935818,           0.,   17.2477722
   1406,  -2.99341393,           0.,   17.2520638
   1407,  -3.48126221,           0.,   17.2577591
   1408,  -3.94566035,           0.,   17.2677383
   1409,  -4.33010864,           0.,   17.2965393
   1410,  -5.15153837,           0.,   17.1975842
   1411,  -5.53879452,           0.,   17.2261086
   1412,  -8.58333778,           0.,   13.3349609
   1413,  -8.19144058,           0.,   14.6504469
   1414,  -8.30537605,           0.,   15.3767538
   1415,  -2.46782899,           0.,  0.763178289
   1416,  -4.33478642,           0.,   0.41710037
   1417,  -5.65002584,           0.,   0.80930835
   1418,  -6.37706757,           0.,  0.694701135
   1419,  -8.26444721,           0.,   11.0373363
   1420,  -2.03814483,           0.,   0.73499459
   1421,   8.26696777,           0.,   6.96219873
   1422,   2.63784194,           0.,   17.2858334
   1423,   1.49017203,           0.,   17.2558289
   1424,   8.23728848,           0.,   6.52848005
   1425,   8.29178333,           0.,   2.09824634
   1426,   8.23726177,           0.,   2.47182727
   1427,   8.15237331,           0.,   15.1372337
   1428,   8.56809235,           0.,   13.1478786
   1429,   8.22116089,           0.,    11.981245
   1430,   8.23941994,           0.,    11.533576
   1431,   8.57458305,           0.,   5.35429764
   1432,         -7.5,          0.5,          1.5
   1433,          7.5,          0.5,          1.5
   1434,          7.5,          0.5,         16.5
   1435,         -7.5,          0.5,         16.5
   1436,           9.,          0.5,          18.
   1437,          -9.,          0.5,          18.
   1438,          -9.,          0.5,           0.
   1439,           9.,          0.5,           0.
   1440,          -7.,          0.5,          1.5
   1441,         -6.5,          0.5,          1.5
   1442,          -6.,          0.5,          1.5
   1443,         -5.5,          0.5,          1.5
   1444,          -5.,          0.5,          1.5
   1445,         -4.5,          0.5,          1.5
   1446,          -4.,          0.5,          1.5
   1447,         -3.5,          0.5,          1.5
   1448,          -3.,          0.5,          1.5
   1449,         -2.5,          0.5,          1.5
   1450,          -2.,          0.5,          1.5
   1451,         -1.5,          0.5,          1.5
   1452,          -1.,          0.5,          1.5
   1453,         -0.5,          0.5,          1.5
   1454,           0.,          0.5,          1.5
   1455,          0.5,          0.5,          1.5
   1456,           1.,          0.5,          1.5
   1457,          1.5,          0.5,          1.5
   1458,           2.,          0.5,          1.5
   1459,          2.5,          0.5,          1.5
   1460,           3.,          0.5,          1.5
   1461,          3.5,          0.5,          1.5
   1462,           4.,          0.5,          1.5
   1463,          4.5,          0.5,          1.5
   1464,           5.,          0.5,          1.5
   1465,          5.5,          0.5,          1.5
   1466,           6.,          0.5,          1.5
   1467,          6.5,          0.5,          1.5
   1468,           7.,          0.5,          1.5
   1469,          7.5,          0.5,           2.
   1470,          7.5,          0.5,          2.5
   1471,          7.5,          0.5,           3.
   1472,          7.5,          0.5,          3.5
   1473,          7.5,          0.5,           4.
   1474,          7.5,          0.5,          4.5
   1475,          7.5,          0.5,           5.
   1476,          7.5,          0.5,          5.5
   1477,          7.5,          0.5,           6.
   1478,          7.5,          0.5,          6.5
   1479,          7.5,          0.5,           7.
   1480,          7.5,          0.5,          7.5
   1481,          7.5,          0.5,           8.
   1482,          7.5,          0.5,          8.5
   1483,          7.5,          0.5,           9.
   1484,          7.5,          0.5,          9.5
   1485,          7.5,          0.5,          10.
   1486,          7.5,          0.5,         10.5
   1487,          7.5,          0.5,          11.
   1488,          7.5,          0.5,         11.5
   1489,          7.5,          0.5,          12.
   1490,          7.5,          0.5,         12.5
   1491,          7.5,          0.5,          13.
   1492,          7.5,          0.5,         13.5
   1493,          7.5,          0.5,          14.
   1494,          7.5,          0.5,         14.5
   1495,          7.5,          0.5,          15.
   1496,          7.5,          0.5,         15.5
   1497,          7.5,          0.5,          16.
   1498,           7.,          0.5,         16.5
   1499,          6.5,          0.5,         16.5
   1500,           6.,          0.5,         16.5
   1501,          5.5,          0.5,         16.5
   1502,           5.,          0.5,         16.5
   1503,          4.5,          0.5,         16.5
   1504,           4.,          0.5,         16.5
   1505,          3.5,          0.5,         16.5
   1506,           3.,          0.5,         16.5
   1507,          2.5,          0.5,         16.5
   1508,           2.,          0.5,         16.5
   1509,          1.5,          0.5,         16.5
   1510,           1.,          0.5,         16.5
   1511,          0.5,          0.5,         16.5
   1512,           0.,          0.5,         16.5
   1513,         -0.5,          0.5,         16.5
   1514,          -1.,          0.5,         16.5
   1515,         -1.5,          0.5,         16.5
   1516,          -2.,          0.5,         16.5
   1517,         -2.5,          0.5,         16.5
   1518,          -3.,          0.5,         16.5
   1519,         -3.5,          0.5,         16.5
   1520,          -4.,          0.5,         16.5
   1521,         -4.5,          0.5,         16.5
   1522,          -5.,          0.5,         16.5
   1523,         -5.5,          0.5,         16.5
   1524,          -6.,          0.5,         16.5
   1525,         -6.5,          0.5,         16.5
   1526,          -7.,          0.5,         16.5
   1527,         -7.5,          0.5,          16.
   1528,         -7.5,          0.5,         15.5
   1529,         -7.5,          0.5,          15.
   1530,         -7.5,          0.5,         14.5
   1531,         -7.5,          0.5,          14.
   1532,         -7.5,          0.5,         13.5
   1533,         -7.5,          0.5,          13.
   1534,         -7.5,          0.5,         12.5
   1535,         -7.5,          0.5,          12.
   1536,         -7.5,          0.5,         11.5
   1537,         -7.5,          0.5,          11.
   1538,         -7.5,          0.5,         10.5
   1539,         -7.5,          0.5,          10.
   1540,         -7.5,          0.5,          9.5
   1541,         -7.5,          0.5,           9.
   1542,         -7.5,          0.5,          8.5
   1543,         -7.5,          0.5,           8.
   1544,         -7.5,          0.5,          7.5
   1545,         -7.5,          0.5,           7.
   1546,         -7.5,          0.5,          6.5
   1547,         -7.5,          0.5,           6.
   1548,         -7.5,          0.5,          5.5
   1549,         -7.5,          0.5,           5.
   1550,         -7.5,          0.5,          4.5
   1551,         -7.5,          0.5,           4.
   1552,         -7.5,          0.5,          3.5
   1553,         -7.5,          0.5,           3.
   1554,         -7.5,          0.5,          2.5
   1555,         -7.5,          0.5,           2.
   1556,          8.5,          0.5,          18.
   1557,           8.,          0.5,          18.
   1558,          7.5,          0.5,          18.
   1559,           7.,          0.5,          18.
   1560,          6.5,          0.5,          18.
   1561,           6.,          0.5,          18.
   1562,          5.5,          0.5,          18.
   1563,           5.,          0.5,          18.
   1564,          4.5,          0.5,          18.
   1565,           4.,          0.5,          18.
   1566,          3.5,          0.5,          18.
   1567,           3.,          0.5,          18.
   1568,          2.5,          0.5,          18.
   1569,           2.,          0.5,          18.
   1570,          1.5,          0.5,          18.
   1571,           1.,          0.5,          18.
   1572,          0.5,          0.5,          18.
   1573,           0.,          0.5,          18.
   1574,         -0.5,          0.5,          18.
   1575,          -1.,          0.5,          18.
   1576,         -1.5,          0.5,          18.
   1577,          -2.,          0.5,          18.
   1578,         -2.5,          0.5,          18.
   1579,          -3.,          0.5,          18.
   1580,         -3.5,          0.5,          18.
   1581,          -4.,          0.5,          18.
   1582,         -4.5,          0.5,          18.
   1583,          -5.,          0.5,          18.
   1584,         -5.5,          0.5,          18.
   1585,          -6.,          0.5,          18.
   1586,         -6.5,          0.5,          18.
   1587,          -7.,          0.5,          18.
   1588,         -7.5,          0.5,          18.
   1589,          -8.,          0.5,          18.
   1590,         -8.5,          0.5,          18.
   1591,          -9.,          0.5,         17.5
   1592,          -9.,          0.5,          17.
   1593,          -9.,          0.5,         16.5
   1594,          -9.,          0.5,          16.
   1595,          -9.,          0.5,         15.5
   1596,          -9.,          0.5,          15.
   1597,          -9.,          0.5,         14.5
   1598,          -9.,          0.5,          14.
   1599,          -9.,          0.5,         13.5
   1600,          -9.,          0.5,          13.
   1601,          -9.,          0.5,         12.5
   1602,          -9.,          0.5,          12.
   1603,          -9.,          0.5,         11.5
   1604,          -9.,          0.5,          11.
   1605,          -9.,          0.5,         10.5
   1606,          -9.,          0.5,          10.
   1607,          -9.,          0.5,          9.5
   1608,          -9.,          0.5,           9.
   1609,          -9.,          0.5,          8.5
   1610,          -9.,          0.5,           8.
   1611,          -9.,          0.5,          7.5
   1612,          -9.,          0.5,           7.
   1613,          -9.,          0.5,          6.5
   1614,          -9.,          0.5,           6.
   1615,          -9.,          0.5,          5.5
   1616,          -9.,          0.5,           5.
   1617,          -9.,          0.5,          4.5
   1618,          -9.,          0.5,           4.
   1619,          -9.,          0.5,          3.5
   1620,          -9.,          0.5,           3.
   1621,          -9.,          0.5,          2.5
   1622,          -9.,          0.5,           2.
   1623,          -9.,          0.5,          1.5
   1624,          -9.,          0.5,           1.
   1625,          -9.,          0.5,          0.5
   1626,         -8.5,          0.5,           0.
   1627,          -8.,          0.5,           0.
   1628,         -7.5,          0.5,           0.
   1629,          -7.,          0.5,           0.
   1630,         -6.5,          0.5,           0.
   1631,          -6.,          0.5,           0.
   1632,         -5.5,          0.5,           0.
   1633,          -5.,          0.5,           0.
   1634,         -4.5,          0.5,           0.
   1635,          -4.,          0.5,           0.
   1636,         -3.5,          0.5,           0.
   1637,          -3.,          0.5,           0.
   1638,         -2.5,          0.5,           0.
   1639,          -2.,          0.5,           0.
   1640,         -1.5,          0.5,           0.
   1641,          -1.,          0.5,           0.
   1642,         -0.5,          0.5,           0.
   1643,           0.,          0.5,           0.
   1644,          0.5,          0.5,           0.
   1645,           1.,          0.5,           0.
   1646,          1.5,          0.5,           0.
   1647,           2.,          0.5,           0.
   1648,          2.5,          0.5,           0.
   1649,           3.,          0.5,           0.
   1650,          3.5,          0.5,           0.
   1651,           4.,          0.5,           0.
   1652,          4.5,          0.5,           0.
   1653,           5.,          0.5,           0.
   1654,          5.5,          0.5,           0.
   1655,           6.,          0.5,           0.
   1656,          6.5,          0.5,           0.
   1657,           7.,          0.5,           0.
   1658,          7.5,          0.5,           0.
   1659,           8.,          0.5,           0.
   1660,          8.5,          0.5,           0.
   1661,           9.,          0.5,          0.5
   1662,           9.,          0.5,           1.
   1663,           9.,          0.5,          1.5
   1664,           9.,          0.5,           2.
   1665,           9.,          0.5,          2.5
   1666,           9.,          0.5,           3.
   1667,           9.,          0.5,          3.5
   1668,           9.,          0.5,           4.
   1669,           9.,          0.5,          4.5
   1670,           9.,          0.5,           5.
   1671,           9.,          0.5,          5.5
   1672,           9.,          0.5,           6.
   1673,           9.,          0.5,          6.5
   1674,           9.,          0.5,           7.
   1675,           9.,          0.5,          7.5
   1676,           9.,          0.5,           8.
   1677,           9.,          0.5,          8.5
   1678,           9.,          0.5,           9.
   1679,           9.,          0.5,          9.5
   1680,           9.,          0.5,          10.
   1681,           9.,          0.5,         10.5
   1682,           9.,          0.5,          11.
   1683,           9.,          0.5,         11.5
   1684,           9.,          0.5,          12.
   1685,           9.,          0.5,         12.5
   1686,           9.,          0.5,          13.
   1687,           9.,          0.5,         13.5
   1688,           9.,          0.5,          14.
   1689,           9.,          0.5,         14.5
   1690,           9.,          0.5,          15.
   1691,           9.,          0.5,         15.5
   1692,           9.,          0.5,          16.
   1693,           9.,          0.5,         16.5
   1694,           9.,          0.5,          17.
   1695,           9.,          0.5,         17.5
   1696,          -7.,          0.5,           2.
   1697,         -6.5,          0.5,           2.
   1698,          -6.,          0.5,           2.
   1699,         -5.5,          0.5,           2.
   1700,          -5.,          0.5,           2.
   1701,         -4.5,          0.5,           2.
   1702,          -4.,          0.5,           2.
   1703,         -3.5,          0.5,           2.
   1704,          -3.,          0.5,           2.
   1705,         -2.5,          0.5,           2.
   1706,          -2.,          0.5,           2.
   1707,         -1.5,          0.5,           2.
   1708,          -1.,          0.5,           2.
   1709,         -0.5,          0.5,           2.
   1710,           0.,          0.5,           2.
   1711,          0.5,          0.5,           2.
   1712,           1.,          0.5,           2.
   1713,          1.5,          0.5,           2.
   1714,           2.,          0.5,           2.
   1715,          2.5,          0.5,           2.
   1716,           3.,          0.5,           2.
   1717,          3.5,          0.5,           2.
   1718,           4.,          0.5,           2.
   1719,          4.5,          0.5,           2.
   1720,           5.,          0.5,           2.
   1721,          5.5,          0.5,           2.
   1722,           6.,          0.5,           2.
   1723,          6.5,          0.5,           2.
   1724,           7.,          0.5,           2.
   1725,          -7.,          0.5,          2.5
   1726,         -6.5,          0.5,          2.5
   1727,          -6.,          0.5,          2.5
   1728,         -5.5,          0.5,          2.5
   1729,          -5.,          0.5,          2.5
   1730,         -4.5,          0.5,          2.5
   1731,          -4.,          0.5,          2.5
   1732,         -3.5,          0.5,          2.5
   1733,          -3.,          0.5,          2.5
   1734,         -2.5,          0.5,          2.5
   1735,          -2.,          0.5,          2.5
   1736,         -1.5,          0.5,          2.5
   1737,          -1.,          0.5,          2.5
   1738,         -0.5,          0.5,          2.5
   1739,           0.,          0.5,          2.5
   1740,          0.5,          0.5,          2.5
   1741,           1.,          0.5,          2.5
   1742,          1.5,          0.5,          2.5
   1743,           2.,          0.5,          2.5
   1744,          2.5,          0.5,          2.5
   1745,           3.,          0.5,          2.5
   1746,          3.5,          0.5,          2.5
   1747,           4.,          0.5,          2.5
   1748,          4.5,          0.5,          2.5
   1749,           5.,          0.5,          2.5
   1750,          5.5,          0.5,          2.5
   1751,           6.,          0.5,          2.5
   1752,          6.5,          0.5,          2.5
   1753,           7.,          0.5,          2.5
   1754,          -7.,          0.5,           3.
   1755,         -6.5,          0.5,           3.
   1756,          -6.,          0.5,           3.
   1757,         -5.5,          0.5,           3.
   1758,          -5.,          0.5,           3.
   1759,         -4.5,          0.5,           3.
   1760,          -4.,          0.5,           3.
   1761,         -3.5,          0.5,           3.
   1762,          -3.,          0.5,           3.
   1763,         -2.5,          0.5,           3.
   1764,          -2.,          0.5,           3.
   1765,         -1.5,          0.5,           3.
   1766,          -1.,          0.5,           3.
   1767,         -0.5,          0.5,           3.
   1768,           0.,          0.5,           3.
   1769,          0.5,          0.5,           3.
   1770,           1.,          0.5,           3.
   1771,          1.5,          0.5,           3.
   1772,           2.,          0.5,           3.
   1773,          2.5,          0.5,           3.
   1774,           3.,          0.5,           3.
   1775,          3.5,          0.5,           3.
   1776,           4.,          0.5,           3.
   1777,          4.5,          0.5,           3.
   1778,           5.,          0.5,           3.
   1779,          5.5,          0.5,           3.
   1780,           6.,          0.5,           3.
   1781,          6.5,          0.5,           3.
   1782,           7.,          0.5,           3.
   1783,          -7.,          0.5,          3.5
   1784,         -6.5,          0.5,          3.5
   1785,          -6.,          0.5,          3.5
   1786,         -5.5,          0.5,          3.5
   1787,          -5.,          0.5,          3.5
   1788,         -4.5,          0.5,          3.5
   1789,          -4.,          0.5,          3.5
   1790,         -3.5,          0.5,          3.5
   1791,          -3.,          0.5,          3.5
   1792,         -2.5,          0.5,          3.5
   1793,          -2.,          0.5,          3.5
   1794,         -1.5,          0.5,          3.5
   1795,          -1.,          0.5,          3.5
   1796,         -0.5,          0.5,          3.5
   1797,           0.,          0.5,          3.5
   1798,          0.5,          0.5,          3.5
   1799,           1.,          0.5,          3.5
   1800,          1.5,          0.5,          3.5
   1801,           2.,          0.5,          3.5
   1802,          2.5,          0.5,          3.5
   1803,           3.,          0.5,          3.5
   1804,          3.5,          0.5,          3.5
   1805,           4.,          0.5,          3.5
   1806,          4.5,          0.5,          3.5
   1807,           5.,          0.5,          3.5
   1808,          5.5,          0.5,          3.5
   1809,           6.,          0.5,          3.5
   1810,          6.5,          0.5,          3.5
   1811,           7.,          0.5,          3.5
   1812,          -7.,          0.5,           4.
   1813,         -6.5,          0.5,           4.
   1814,          -6.,          0.5,           4.
   1815,         -5.5,          0.5,           4.
   1816,          -5.,          0.5,           4.
   1817,         -4.5,          0.5,           4.
   1818,          -4.,          0.5,           4.
   1819,         -3.5,          0.5,           4.
   1820,          -3.,          0.5,           4.
   1821,         -2.5,          0.5,           4.
   1822,          -2.,          0.5,           4.
   1823,         -1.5,          0.5,           4.
   1824,          -1.,          0.5,           4.
   1825,         -0.5,          0.5,           4.
   1826,           0.,          0.5,           4.
   1827,          0.5,          0.5,           4.
   1828,           1.,          0.5,           4.
   1829,          1.5,          0.5,           4.
   1830,           2.,          0.5,           4.
   1831,          2.5,          0.5,           4.
   1832,           3.,          0.5,           4.
   1833,          3.5,          0.5,           4.
   1834,           4.,          0.5,           4.
   1835,          4.5,          0.5,           4.
   1836,           5.,          0.5,           4.
   1837,          5.5,          0.5,           4.
   1838,           6.,          0.5,           4.
   1839,          6.5,          0.5,           4.
   1840,           7.,          0.5,           4.
   1841,          -7.,          0.5,          4.5
   1842,         -6.5,          0.5,          4.5
   1843,          -6.,          0.5,          4.5
   1844,         -5.5,          0.5,          4.5
   1845,          -5.,          0.5,          4.5
   1846,         -4.5,          0.5,          4.5
   1847,          -4.,          0.5,          4.5
   1848,         -3.5,          0.5,          4.5
   1849,          -3.,          0.5,          4.5
   1850,         -2.5,          0.5,          4.5
   1851,          -2.,          0.5,          4.5
   1852,         -1.5,          0.5,          4.5
   1853,          -1.,          0.5,          4.5
   1854,         -0.5,          0.5,          4.5
   1855,           0.,          0.5,          4.5
   1856,          0.5,          0.5,          4.5
   1857,           1.,          0.5,          4.5
   1858,          1.5,          0.5,          4.5
   1859,           2.,          0.5,          4.5
   1860,          2.5,          0.5,          4.5
   1861,           3.,          0.5,          4.5
   1862,          3.5,          0.5,          4.5
   1863,           4.,          0.5,          4.5
   1864,          4.5,          0.5,          4.5
   1865,           5.,          0.5,          4.5
   1866,          5.5,          0.5,          4.5
   1867,           6.,          0.5,          4.5
   1868,          6.5,          0.5,          4.5
   1869,           7.,          0.5,          4.5
   1870,          -7.,          0.5,           5.
   1871,         -6.5,          0.5,           5.
   1872,          -6.,          0.5,           5.
   1873,         -5.5,          0.5,           5.
   1874,          -5.,          0.5,           5.
   1875,         -4.5,          0.5,           5.
   1876,          -4.,          0.5,           5.
   1877,         -3.5,          0.5,           5.
   1878,          -3.,          0.5,           5.
   1879,         -2.5,          0.5,           5.
   1880,          -2.,          0.5,           5.
   1881,         -1.5,          0.5,           5.
   1882,          -1.,          0.5,           5.
   1883,         -0.5,          0.5,           5.
   1884,           0.,          0.5,           5.
   1885,          0.5,          0.5,           5.
   1886,           1.,          0.5,           5.
   1887,          1.5,          0.5,           5.
   1888,           2.,          0.5,           5.
   1889,          2.5,          0.5,           5.
   1890,           3.,          0.5,           5.
   1891,          3.5,          0.5,           5.
   1892,           4.,          0.5,           5.
   1893,          4.5,          0.5,           5.
   1894,           5.,          0.5,           5.
   1895,          5.5,          0.5,           5.
   1896,           6.,          0.5,           5.
   1897,          6.5,          0.5,           5.
   1898,           7.,          0.5,           5.
   1899,          -7.,          0.5,          5.5
   1900,         -6.5,          0.5,          5.5
   1901,          -6.,          0.5,          5.5
   1902,         -5.5,          0.5,          5.5
   1903,          -5.,          0.5,          5.5
   1904,         -4.5,          0.5,          5.5
   1905,          -4.,          0.5,          5.5
   1906,         -3.5,          0.5,          5.5
   1907,          -3.,          0.5,          5.5
   1908,         -2.5,          0.5,          5.5
   1909,          -2.,          0.5,          5.5
   1910,         -1.5,          0.5,          5.5
   1911,          -1.,          0.5,          5.5
   1912,         -0.5,          0.5,          5.5
   1913,           0.,          0.5,          5.5
   1914,          0.5,          0.5,          5.5
   1915,           1.,          0.5,          5.5
   1916,          1.5,          0.5,          5.5
   1917,           2.,          0.5,          5.5
   1918,          2.5,          0.5,          5.5
   1919,           3.,          0.5,          5.5
   1920,          3.5,          0.5,          5.5
   1921,           4.,          0.5,          5.5
   1922,          4.5,          0.5,          5.5
   1923,           5.,          0.5,          5.5
   1924,          5.5,          0.5,          5.5
   1925,           6.,          0.5,          5.5
   1926,          6.5,          0.5,          5.5
   1927,           7.,          0.5,          5.5
   1928,          -7.,          0.5,           6.
   1929,         -6.5,          0.5,           6.
   1930,          -6.,          0.5,           6.
   1931,         -5.5,          0.5,           6.
   1932,          -5.,          0.5,           6.
   1933,         -4.5,          0.5,           6.
   1934,          -4.,          0.5,           6.
   1935,         -3.5,          0.5,           6.
   1936,          -3.,          0.5,           6.
   1937,         -2.5,          0.5,           6.
   1938,          -2.,          0.5,           6.
   1939,         -1.5,          0.5,           6.
   1940,          -1.,          0.5,           6.
   1941,         -0.5,          0.5,           6.
   1942,           0.,          0.5,           6.
   1943,          0.5,          0.5,           6.
   1944,           1.,          0.5,           6.
   1945,          1.5,          0.5,           6.
   1946,           2.,          0.5,           6.
   1947,          2.5,          0.5,           6.
   1948,           3.,          0.5,           6.
   1949,          3.5,          0.5,           6.
   1950,           4.,          0.5,           6.
   1951,          4.5,          0.5,           6.
   1952,           5.,          0.5,           6.
   1953,          5.5,          0.5,           6.
   1954,           6.,          0.5,           6.
   1955,          6.5,          0.5,           6.
   1956,           7.,          0.5,           6.
   1957,          -7.,          0.5,          6.5
   1958,         -6.5,          0.5,          6.5
   1959,          -6.,          0.5,          6.5
   1960,         -5.5,          0.5,          6.5
   1961,          -5.,          0.5,          6.5
   1962,         -4.5,          0.5,          6.5
   1963,          -4.,          0.5,          6.5
   1964,         -3.5,          0.5,          6.5
   1965,          -3.,          0.5,          6.5
   1966,         -2.5,          0.5,          6.5
   1967,          -2.,          0.5,          6.5
   1968,         -1.5,          0.5,          6.5
   1969,          -1.,          0.5,          6.5
   1970,         -0.5,          0.5,          6.5
   1971,           0.,          0.5,          6.5
   1972,          0.5,          0.5,          6.5
   1973,           1.,          0.5,          6.5
   1974,          1.5,          0.5,          6.5
   1975,           2.,          0.5,          6.5
   1976,          2.5,          0.5,          6.5
   1977,           3.,          0.5,          6.5
   1978,          3.5,          0.5,          6.5
   1979,           4.,          0.5,          6.5
   1980,          4.5,          0.5,          6.5
   1981,           5.,          0.5,          6.5
   1982,          5.5,          0.5,          6.5
   1983,           6.,          0.5,          6.5
   1984,          6.5,          0.5,          6.5
   1985,           7.,          0.5,          6.5
   1986,          -7.,          0.5,           7.
   1987,         -6.5,          0.5,           7.
   1988,          -6.,          0.5,           7.
   1989,         -5.5,          0.5,           7.
   1990,          -5.,          0.5,           7.
   1991,         -4.5,          0.5,           7.
   1992,          -4.,          0.5,           7.
   1993,         -3.5,          0.5,           7.
   1994,          -3.,          0.5,           7.
   1995,         -2.5,          0.5,           7.
   1996,          -2.,          0.5,           7.
   1997,         -1.5,          0.5,           7.
   1998,          -1.,          0.5,           7.
   1999,         -0.5,          0.5,           7.
   2000,           0.,          0.5,           7.
   2001,          0.5,          0.5,           7.
   2002,           1.,          0.5,           7.
   2003,          1.5,          0.5,           7.
   2004,           2.,          0.5,           7.
   2005,          2.5,          0.5,           7.
   2006,           3.,          0.5,           7.
   2007,          3.5,          0.5,           7.
   2008,           4.,          0.5,           7.
   2009,          4.5,          0.5,           7.
   2010,           5.,          0.5,           7.
   2011,          5.5,          0.5,           7.
   2012,           6.,          0.5,           7.
   2013,          6.5,          0.5,           7.
   2014,           7.,          0.5,           7.
   2015,          -7.,          0.5,          7.5
   2016,         -6.5,          0.5,          7.5
   2017,          -6.,          0.5,          7.5
   2018,         -5.5,          0.5,          7.5
   2019,          -5.,          0.5,          7.5
   2020,         -4.5,          0.5,          7.5
   2021,          -4.,          0.5,          7.5
   2022,         -3.5,          0.5,          7.5
   2023,          -3.,          0.5,          7.5
   2024,         -2.5,          0.5,          7.5
   2025,          -2.,          0.5,          7.5
   2026,         -1.5,          0.5,          7.5
   2027,          -1.,          0.5,          7.5
   2028,         -0.5,          0.5,          7.5
   2029,           0.,          0.5,          7.5
   2030,          0.5,          0.5,          7.5
   2031,           1.,          0.5,          7.5
   2032,          1.5,          0.5,          7.5
   2033,           2.,          0.5,          7.5
   2034,          2.5,          0.5,          7.5
   2035,           3.,          0.5,          7.5
   2036,          3.5,          0.5,          7.5
   2037,           4.,          0.5,          7.5
   2038,          4.5,          0.5,          7.5
   2039,           5.,          0.5,          7.5
   2040,          5.5,          0.5,          7.5
   2041,           6.,          0.5,          7.5
   2042,          6.5,          0.5,          7.5
   2043,           7.,          0.5,          7.5
   2044,          -7.,          0.5,           8.
   2045,         -6.5,          0.5,           8.
   2046,          -6.,          0.5,           8.
   2047,         -5.5,          0.5,           8.
   2048,          -5.,          0.5,           8.
   2049,         -4.5,          0.5,           8.
   2050,          -4.,          0.5,           8.
   2051,         -3.5,          0.5,           8.
   2052,          -3.,          0.5,           8.
   2053,         -2.5,          0.5,           8.
   2054,          -2.,          0.5,           8.
   2055,         -1.5,          0.5,           8.
   2056,          -1.,          0.5,           8.
   2057,         -0.5,          0.5,           8.
   2058,           0.,          0.5,           8.
   2059,          0.5,          0.5,           8.
   2060,           1.,          0.5,           8.
   2061,          1.5,          0.5,           8.
   2062,           2.,          0.5,           8.
   2063,          2.5,          0.5,           8.
   2064,           3.,          0.5,           8.
   2065,          3.5,          0.5,           8.
   2066,           4.,          0.5,           8.
   2067,          4.5,          0.5,           8.
   2068,           5.,          0.5,           8.
   2069,          5.5,          0.5,           8.
   2070,           6.,          0.5,           8.
   2071,          6.5,          0.5,           8.
   2072,           7.,          0.5,           8.
   2073,          -7.,          0.5,          8.5
   2074,         -6.5,          0.5,          8.5
   2075,          -6.,          0.5,          8.5
   2076,         -5.5,          0.5,          8.5
   2077,          -5.,          0.5,          8.5
   2078,         -4.5,          0.5,          8.5
   2079,          -4.,          0.5,          8.5
   2080,         -3.5,          0.5,          8.5
   2081,          -3.,          0.5,          8.5
   2082,         -2.5,          0.5,          8.5
   2083,          -2.,          0.5,          8.5
   2084,         -1.5,          0.5,          8.5
   2085,          -1.,          0.5,          8.5
   2086,         -0.5,          0.5,          8.5
   2087,           0.,          0.5,          8.5
   2088,          0.5,          0.5,          8.5
   2089,           1.,          0.5,          8.5
   2090,          1.5,          0.5,          8.5
   2091,           2.,          0.5,          8.5
   2092,          2.5,          0.5,          8.5
   2093,           3.,          0.5,          8.5
   2094,          3.5,          0.5,          8.5
   2095,           4.,          0.5,          8.5
   2096,          4.5,          0.5,          8.5
   2097,           5.,          0.5,          8.5
   2098,          5.5,          0.5,          8.5
   2099,           6.,          0.5,          8.5
   2100,          6.5,          0.5,          8.5
   2101,           7.,          0.5,          8.5
   2102,          -7.,          0.5,           9.
   2103,         -6.5,          0.5,           9.
   2104,          -6.,          0.5,           9.
   2105,         -5.5,          0.5,           9.
   2106,          -5.,          0.5,           9.
   2107,         -4.5,          0.5,           9.
   2108,          -4.,          0.5,           9.
   2109,         -3.5,          0.5,           9.
   2110,          -3.,          0.5,           9.
   2111,         -2.5,          0.5,           9.
   2112,          -2.,          0.5,           9.
   2113,         -1.5,          0.5,           9.
   2114,          -1.,          0.5,           9.
   2115,         -0.5,          0.5,           9.
   2116,           0.,          0.5,           9.
   2117,          0.5,          0.5,           9.
   2118,           1.,          0.5,           9.
   2119,          1.5,          0.5,           9.
   2120,           2.,          0.5,           9.
   2121,          2.5,          0.5,           9.
   2122,           3.,          0.5,           9.
   2123,          3.5,          0.5,           9.
   2124,           4.,          0.5,           9.
   2125,          4.5,          0.5,           9.
   2126,           5.,          0.5,           9.
   2127,          5.5,          0.5,           9.
   2128,           6.,          0.5,           9.
   2129,          6.5,          0.5,           9.
   2130,           7.,          0.5,           9.
   2131,          -7.,          0.5,          9.5
   2132,         -6.5,          0.5,          9.5
   2133,          -6.,          0.5,          9.5
   2134,         -5.5,          0.5,          9.5
   2135,          -5.,          0.5,          9.5
   2136,         -4.5,          0.5,          9.5
   2137,          -4.,          0.5,          9.5
   2138,         -3.5,          0.5,          9.5
   2139,          -3.,          0.5,          9.5
   2140,         -2.5,          0.5,          9.5
   2141,          -2.,          0.5,          9.5
   2142,         -1.5,          0.5,          9.5
   2143,          -1.,          0.5,          9.5
   2144,         -0.5,          0.5,          9.5
   2145,           0.,          0.5,          9.5
   2146,          0.5,          0.5,          9.5
   2147,           1.,          0.5,          9.5
   2148,          1.5,          0.5,          9.5
   2149,           2.,          0.5,          9.5
   2150,          2.5,          0.5,          9.5
   2151,           3.,          0.5,          9.5
   2152,          3.5,          0.5,          9.5
   2153,           4.,          0.5,          9.5
   2154,          4.5,          0.5,          9.5
   2155,           5.,          0.5,          9.5
   2156,          5.5,          0.5,          9.5
   2157,           6.,          0.5,          9.5
   2158,          6.5,          0.5,          9.5
   2159,           7.,          0.5,          9.5
   2160,          -7.,          0.5,          10.
   2161,         -6.5,          0.5,          10.
   2162,          -6.,          0.5,          10.
   2163,         -5.5,          0.5,          10.
   2164,          -5.,          0.5,          10.
   2165,         -4.5,          0.5,          10.
   2166,          -4.,          0.5,          10.
   2167,         -3.5,          0.5,          10.
   2168,          -3.,          0.5,          10.
   2169,         -2.5,          0.5,          10.
   2170,          -2.,          0.5,          10.
   2171,         -1.5,          0.5,          10.
   2172,          -1.,          0.5,          10.
   2173,         -0.5,          0.5,          10.
   2174,           0.,          0.5,          10.
   2175,          0.5,          0.5,          10.
   2176,           1.,          0.5,          10.
   2177,          1.5,          0.5,          10.
   2178,           2.,          0.5,          10.
   2179,          2.5,          0.5,          10.
   2180,           3.,          0.5,          10.
   2181,          3.5,          0.5,          10.
   2182,           4.,          0.5,          10.
   2183,          4.5,          0.5,          10.
   2184,           5.,          0.5,          10.
   2185,          5.5,          0.5,          10.
   2186,           6.,          0.5,          10.
   2187,          6.5,          0.5,          10.
   2188,           7.,          0.5,          10.
   2189,          -7.,          0.5,         10.5
   2190,         -6.5,          0.5,         10.5
   2191,          -6.,          0.5,         10.5
   2192,         -5.5,          0.5,         10.5
   2193,          -5.,          0.5,         10.5
   2194,         -4.5,          0.5,         10.5
   2195,          -4.,          0.5,         10.5
   2196,         -3.5,          0.5,         10.5
   2197,          -3.,          0.5,         10.5
   2198,         -2.5,          0.5,         10.5
   2199,          -2.,          0.5,         10.5
   2200,         -1.5,          0.5,         10.5
   2201,          -1.,          0.5,         10.5
   2202,         -0.5,          0.5,         10.5
   2203,           0.,          0.5,         10.5
   2204,          0.5,          0.5,         10.5
   2205,           1.,          0.5,         10.5
   2206,          1.5,          0.5,         10.5
   2207,           2.,          0.5,         10.5
   2208,          2.5,          0.5,         10.5
   2209,           3.,          0.5,         10.5
   2210,          3.5,          0.5,         10.5
   2211,           4.,          0.5,         10.5
   2212,          4.5,          0.5,         10.5
   2213,           5.,          0.5,         10.5
   2214,          5.5,          0.5,         10.5
   2215,           6.,          0.5,         10.5
   2216,          6.5,          0.5,         10.5
   2217,           7.,          0.5,         10.5
   2218,          -7.,          0.5,          11.
   2219,         -6.5,          0.5,          11.
   2220,          -6.,          0.5,          11.
   2221,         -5.5,          0.5,          11.
   2222,          -5.,          0.5,          11.
   2223,         -4.5,          0.5,          11.
   2224,          -4.,          0.5,          11.
   2225,         -3.5,          0.5,          11.
   2226,          -3.,          0.5,          11.
   2227,         -2.5,          0.5,          11.
   2228,          -2.,          0.5,          11.
   2229,         -1.5,          0.5,          11.
   2230,          -1.,          0.5,          11.
   2231,         -0.5,          0.5,          11.
   2232,           0.,          0.5,          11.
   2233,          0.5,          0.5,          11.
   2234,           1.,          0.5,          11.
   2235,          1.5,          0.5,          11.
   2236,           2.,          0.5,          11.
   2237,          2.5,          0.5,          11.
   2238,           3.,          0.5,          11.
   2239,          3.5,          0.5,          11.
   2240,           4.,          0.5,          11.
   2241,          4.5,          0.5,          11.
   2242,           5.,          0.5,          11.
   2243,          5.5,          0.5,          11.
   2244,           6.,          0.5,          11.
   2245,          6.5,          0.5,          11.
   2246,           7.,          0.5,          11.
   2247,          -7.,          0.5,         11.5
   2248,         -6.5,          0.5,         11.5
   2249,          -6.,          0.5,         11.5
   2250,         -5.5,          0.5,         11.5
   2251,          -5.,          0.5,         11.5
   2252,         -4.5,          0.5,         11.5
   2253,          -4.,          0.5,         11.5
   2254,         -3.5,          0.5,         11.5
   2255,          -3.,          0.5,         11.5
   2256,         -2.5,          0.5,         11.5
   2257,          -2.,          0.5,         11.5
   2258,         -1.5,          0.5,         11.5
   2259,          -1.,          0.5,         11.5
   2260,         -0.5,          0.5,         11.5
   2261,           0.,          0.5,         11.5
   2262,          0.5,          0.5,         11.5
   2263,           1.,          0.5,         11.5
   2264,          1.5,          0.5,         11.5
   2265,           2.,          0.5,         11.5
   2266,          2.5,          0.5,         11.5
   2267,           3.,          0.5,         11.5
   2268,          3.5,          0.5,         11.5
   2269,           4.,          0.5,         11.5
   2270,          4.5,          0.5,         11.5
   2271,           5.,          0.5,         11.5
   2272,          5.5,          0.5,         11.5
   2273,           6.,          0.5,         11.5
   2274,          6.5,          0.5,         11.5
   2275,           7.,          0.5,         11.5
   2276,          -7.,          0.5,          12.
   2277,         -6.5,          0.5,          12.
   2278,          -6.,          0.5,          12.
   2279,         -5.5,          0.5,          12.
   2280,          -5.,          0.5,          12.
   2281,         -4.5,          0.5,          12.
   2282,          -4.,          0.5,          12.
   2283,         -3.5,          0.5,          12.
   2284,          -3.,          0.5,          12.
   2285,         -2.5,          0.5,          12.
   2286,          -2.,          0.5,          12.
   2287,         -1.5,          0.5,          12.
   2288,          -1.,          0.5,          12.
   2289,         -0.5,          0.5,          12.
   2290,           0.,          0.5,          12.
   2291,          0.5,          0.5,          12.
   2292,           1.,          0.5,          12.
   2293,          1.5,          0.5,          12.
   2294,           2.,          0.5,          12.
   2295,          2.5,          0.5,          12.
   2296,           3.,          0.5,          12.
   2297,          3.5,          0.5,          12.
   2298,           4.,          0.5,          12.
   2299,          4.5,          0.5,          12.
   2300,           5.,          0.5,          12.
   2301,          5.5,          0.5,          12.
   2302,           6.,          0.5,          12.
   2303,          6.5,          0.5,          12.
   2304,           7.,          0.5,          12.
   2305,          -7.,          0.5,         12.5
   2306,         -6.5,          0.5,         12.5
   2307,          -6.,          0.5,         12.5
   2308,         -5.5,          0.5,         12.5
   2309,          -5.,          0.5,         12.5
   2310,         -4.5,          0.5,         12.5
   2311,          -4.,          0.5,         12.5
   2312,         -3.5,          0.5,         12.5
   2313,          -3.,          0.5,         12.5
   2314,         -2.5,          0.5,         12.5
   2315,          -2.,          0.5,         12.5
   2316,         -1.5,          0.5,         12.5
   2317,          -1.,          0.5,         12.5
   2318,         -0.5,          0.5,         12.5
   2319,           0.,          0.5,         12.5
   2320,          0.5,          0.5,         12.5
   2321,           1.,          0.5,         12.5
   2322,          1.5,          0.5,         12.5
   2323,           2.,          0.5,         12.5
   2324,          2.5,          0.5,         12.5
   2325,           3.,          0.5,         12.5
   2326,          3.5,          0.5,         12.5
   2327,           4.,          0.5,         12.5
   2328,          4.5,          0.5,         12.5
   2329,           5.,          0.5,         12.5
   2330,          5.5,          0.5,         12.5
   2331,           6.,          0.5,         12.5
   2332,          6.5,          0.5,         12.5
   2333,           7.,          0.5,         12.5
   2334,          -7.,          0.5,          13.
   2335,         -6.5,          0.5,          13.
   2336,          -6.,          0.5,          13.
   2337,         -5.5,          0.5,          13.
   2338,          -5.,          0.5,          13.
   2339,         -4.5,          0.5,          13.
   2340,          -4.,          0.5,          13.
   2341,         -3.5,          0.5,          13.
   2342,          -3.,          0.5,          13.
   2343,         -2.5,          0.5,          13.
   2344,          -2.,          0.5,          13.
   2345,         -1.5,          0.5,          13.
   2346,          -1.,          0.5,          13.
   2347,         -0.5,          0.5,          13.
   2348,           0.,          0.5,          13.
   2349,          0.5,          0.5,          13.
   2350,           1.,          0.5,          13.
   2351,          1.5,          0.5,          13.
   2352,           2.,          0.5,          13.
   2353,          2.5,          0.5,          13.
   2354,           3.,          0.5,          13.
   2355,          3.5,          0.5,          13.
   2356,           4.,          0.5,          13.
   2357,          4.5,          0.5,          13.
   2358,           5.,          0.5,          13.
   2359,          5.5,          0.5,          13.
   2360,           6.,          0.5,          13.
   2361,          6.5,          0.5,          13.
   2362,           7.,          0.5,          13.
   2363,          -7.,          0.5,         13.5
   2364,         -6.5,          0.5,         13.5
   2365,          -6.,          0.5,         13.5
   2366,         -5.5,          0.5,         13.5
   2367,          -5.,          0.5,         13.5
   2368,         -4.5,          0.5,         13.5
   2369,          -4.,          0.5,         13.5
   2370,         -3.5,          0.5,         13.5
   2371,          -3.,          0.5,         13.5
   2372,         -2.5,          0.5,         13.5
   2373,          -2.,          0.5,         13.5
   2374,         -1.5,          0.5,         13.5
   2375,          -1.,          0.5,         13.5
   2376,         -0.5,          0.5,         13.5
   2377,           0.,          0.5,         13.5
   2378,          0.5,          0.5,         13.5
   2379,           1.,          0.5,         13.5
   2380,          1.5,          0.5,         13.5
   2381,           2.,          0.5,         13.5
   2382,          2.5,          0.5,         13.5
   2383,           3.,          0.5,         13.5
   2384,          3.5,          0.5,         13.5
   2385,           4.,          0.5,         13.5
   2386,          4.5,          0.5,         13.5
   2387,           5.,          0.5,         13.5
   2388,          5.5,          0.5,         13.5
   2389,           6.,          0.5,         13.5
   2390,          6.5,          0.5,         13.5
   2391,           7.,          0.5,         13.5
   2392,          -7.,          0.5,          14.
   2393,         -6.5,          0.5,          14.
   2394,          -6.,          0.5,          14.
   2395,         -5.5,          0.5,          14.
   2396,          -5.,          0.5,          14.
   2397,         -4.5,          0.5,          14.
   2398,          -4.,          0.5,          14.
   2399,         -3.5,          0.5,          14.
   2400,          -3.,          0.5,          14.
   2401,         -2.5,          0.5,          14.
   2402,          -2.,          0.5,          14.
   2403,         -1.5,          0.5,          14.
   2404,          -1.,          0.5,          14.
   2405,         -0.5,          0.5,          14.
   2406,           0.,          0.5,          14.
   2407,          0.5,          0.5,          14.
   2408,           1.,          0.5,          14.
   2409,          1.5,          0.5,          14.
   2410,           2.,          0.5,          14.
   2411,          2.5,          0.5,          14.
   2412,           3.,          0.5,          14.
   2413,          3.5,          0.5,          14.
   2414,           4.,          0.5,          14.
   2415,          4.5,          0.5,          14.
   2416,           5.,          0.5,          14.
   2417,          5.5,          0.5,          14.
   2418,           6.,          0.5,          14.
   2419,          6.5,          0.5,          14.
   2420,           7.,          0.5,          14.
   2421,          -7.,          0.5,         14.5
   2422,         -6.5,          0.5,         14.5
   2423,          -6.,          0.5,         14.5
   2424,         -5.5,          0.5,         14.5
   2425,          -5.,          0.5,         14.5
   2426,         -4.5,          0.5,         14.5
   2427,          -4.,          0.5,         14.5
   2428,         -3.5,          0.5,         14.5
   2429,          -3.,          0.5,         14.5
   2430,         -2.5,          0.5,         14.5
   2431,          -2.,          0.5,         14.5
   2432,         -1.5,          0.5,         14.5
   2433,          -1.,          0.5,         14.5
   2434,         -0.5,          0.5,         14.5
   2435,           0.,          0.5,         14.5
   2436,          0.5,          0.5,         14.5
   2437,           1.,          0.5,         14.5
   2438,          1.5,          0.5,         14.5
   2439,           2.,          0.5,         14.5
   2440,          2.5,          0.5,         14.5
   2441,           3.,          0.5,         14.5
   2442,          3.5,          0.5,         14.5
   2443,           4.,          0.5,         14.5
   2444,          4.5,          0.5,         14.5
   2445,           5.,          0.5,         14.5
   2446,          5.5,          0.5,         14.5
   2447,           6.,          0.5,         14.5
   2448,          6.5,          0.5,         14.5
   2449,           7.,          0.5,         14.5
   2450,          -7.,          0.5,          15.
   2451,         -6.5,          0.5,          15.
   2452,          -6.,          0.5,          15.
   2453,         -5.5,          0.5,          15.
   2454,          -5.,          0.5,          15.
   2455,         -4.5,          0.5,          15.
   2456,          -4.,          0.5,          15.
   2457,         -3.5,          0.5,          15.
   2458,          -3.,          0.5,          15.
   2459,         -2.5,          0.5,          15.
   2460,          -2.,          0.5,          15.
   2461,         -1.5,          0.5,          15.
   2462,          -1.,          0.5,          15.
   2463,         -0.5,          0.5,          15.
   2464,           0.,          0.5,          15.
   2465,          0.5,          0.5,          15.
   2466,           1.,          0.5,          15.
   2467,          1.5,          0.5,          15.
   2468,           2.,          0.5,          15.
   2469,          2.5,          0.5,          15.
   2470,           3.,          0.5,          15.
   2471,          3.5,          0.5,          15.
   2472,           4.,          0.5,          15.
   2473,          4.5,          0.5,          15.
   2474,           5.,          0.5,          15.
   2475,          5.5,          0.5,          15.
   2476,           6.,          0.5,          15.
   2477,          6.5,          0.5,          15.
   2478,           7.,          0.5,          15.
   2479,          -7.,          0.5,         15.5
   2480,         -6.5,          0.5,         15.5
   2481,          -6.,          0.5,         15.5
   2482,         -5.5,          0.5,         15.5
   2483,          -5.,          0.5,         15.5
   2484,         -4.5,          0.5,         15.5
   2485,          -4.,          0.5,         15.5
   2486,         -3.5,          0.5,         15.5
   2487,          -3.,          0.5,         15.5
   2488,         -2.5,          0.5,         15.5
   2489,          -2.,          0.5,         15.5
   2490,         -1.5,          0.5,         15.5
   2491,          -1.,          0.5,         15.5
   2492,         -0.5,          0.5,         15.5
   2493,           0.,          0.5,         15.5
   2494,          0.5,          0.5,         15.5
   2495,           1.,          0.5,         15.5
   2496,          1.5,          0.5,         15.5
   2497,           2.,          0.5,         15.5
   2498,          2.5,          0.5,         15.5
   2499,           3.,          0.5,         15.5
   2500,          3.5,          0.5,         15.5
   2501,           4.,          0.5,         15.5
   2502,          4.5,          0.5,         15.5
   2503,           5.,          0.5,         15.5
   2504,          5.5,          0.5,         15.5
   2505,           6.,          0.5,         15.5
   2506,          6.5,          0.5,         15.5
   2507,           7.,          0.5,         15.5
   2508,          -7.,          0.5,          16.
   2509,         -6.5,          0.5,          16.
   2510,          -6.,          0.5,          16.
   2511,         -5.5,          0.5,          16.
   2512,          -5.,          0.5,          16.
   2513,         -4.5,          0.5,          16.
   2514,          -4.,          0.5,          16.
   2515,         -3.5,          0.5,          16.
   2516,          -3.,          0.5,          16.
   2517,         -2.5,          0.5,          16.
   2518,          -2.,          0.5,          16.
   2519,         -1.5,          0.5,          16.
   2520,          -1.,          0.5,          16.
   2521,         -0.5,          0.5,          16.
   2522,           0.,          0.5,          16.
   2523,          0.5,          0.5,          16.
   2524,           1.,          0.5,          16.
   2525,          1.5,          0.5,          16.
   2526,           2.,          0.5,          16.
   2527,          2.5,          0.5,          16.
   2528,           3.,          0.5,          16.
   2529,          3.5,          0.5,          16.
   2530,           4.,          0.5,          16.
   2531,          4.5,          0.5,          16.
   2532,           5.,          0.5,          16.
   2533,          5.5,          0.5,          16.
   2534,           6.,          0.5,          16.
   2535,          6.5,          0.5,          16.
   2536,           7.,          0.5,          16.
   2537,  -6.61818171,          0.5,  0.962212324
   2538,   7.89047241,          0.5,   2.43746781
   2539,  -7.70136356,          0.5,   1.03730106
   2540,  -5.57324743,          0.5,   1.12080479
   2541,  -4.62498951,          0.5,  0.978572428
   2542,   -3.3877728,          0.5,   1.01729417
   2543,  -2.46932435,          0.5,   1.13675988
   2544,  -1.42463374,          0.5,  0.964523852
   2545, -0.341211677,          0.5,   1.00809944
   2546,  0.668547451,          0.5,   1.03895867
   2547,   1.81920505,          0.5,   1.08651793
   2548,   2.81475925,          0.5,  0.992671371
   2549,   3.85375047,          0.5,  0.983120978
   2550,   4.97732639,          0.5,   1.16365051
   2551,   5.98186016,          0.5,   1.11112905
   2552,   6.93442822,          0.5,   1.15345204
   2553,   7.89582014,          0.5,   1.20078659
   2554,  -7.86774158,          0.5,   2.05084753
   2555,  -7.83836651,          0.5,   2.97587299
   2556,  -7.96743393,          0.5,   3.89565086
   2557,  -8.03316402,          0.5,   5.13424826
   2558,  -8.01168537,          0.5,   6.17382574
   2559,  -7.98377275,          0.5,   7.18455505
   2560,  -7.90689421,          0.5,   8.33893299
   2561,   -7.9940033,          0.5,    9.3381691
   2562,  -8.03526878,          0.5,   10.4250164
   2563,  -7.86203241,          0.5,   11.4696608
   2564,  -7.98236847,          0.5,   12.3880577
   2565,  -8.02211857,          0.5,   13.6251879
   2566,  -7.87984705,          0.5,   14.5733576
   2567,  -8.03772736,          0.5,   15.6179934
   2568,   7.79560995,          0.5,   16.8884373
   2569,   6.59399176,          0.5,   17.0446548
   2570,   5.49497032,          0.5,   16.8905258
   2571,   4.49248362,          0.5,   16.9075985
   2572,   3.43815064,          0.5,   16.8905067
   2573,   2.41457105,          0.5,   16.9911537
   2574,   1.45798314,          0.5,   16.8969803
   2575,  0.349581152,          0.5,   16.9992199
   2576, -0.566483974,          0.5,   16.8642902
   2577,  -2.00486779,          0.5,   16.8673038
   2578,  -2.99646235,          0.5,   16.8740692
   2579,  -3.98931026,          0.5,   16.8987064
   2580,   -5.0414772,          0.5,   16.8782959
   2581,  -5.99973822,          0.5,   16.8553581
   2582,  -6.94317245,          0.5,   16.8742619
   2583,  -7.96174097,          0.5,   16.7020378
   2584,   7.82518053,          0.5,   15.9483318
   2585,   7.84632206,          0.5,    15.046051
   2586,   8.00544643,          0.5,    14.121315
   2587,   7.96770573,          0.5,   12.9107208
   2588,   7.85546398,          0.5,   11.9844456
   2589,   7.95658636,          0.5,   10.9151564
   2590,   7.96421623,          0.5,   9.67096615
   2591,   7.99157381,          0.5,   8.65863228
   2592,      8.03827,          0.5,   7.57617235
   2593,   7.86544895,          0.5,   6.52779198
   2594,   7.97688627,          0.5,   5.60042763
   2595,   8.02678299,          0.5,    4.3648963
   2596,   7.94719648,          0.5,    3.3535018
   2597,  -7.38659096,          0.5,   16.9713058
   2598,   6.47684765,          0.5,   1.13726151
   2599,  -6.48085785,          0.5,   16.8587112
   2600,    7.8667779,          0.5,   12.4562387
   2601,   3.32808065,          0.5,  0.989015639
   2602,   7.87445402,          0.5,     6.058815
   2603,  -8.02110767,          0.5,   5.66368818
   2604,  -3.49164701,          0.5,   16.8798752
   2605,   2.65270996,          0.5,  0.512361646
   2606,   4.18367958,          0.5,   0.45541957
   2607,   5.51904917,          0.5,  0.400230736
   2608,   6.01136923,          0.5,  0.375031203
   2609,   6.49511814,          0.5,   0.38638714
   2610,   6.98858261,          0.5,  0.415299952
   2611,   7.49326277,          0.5,  0.473755628
   2612,   1.48778534,          0.5,  0.645370662
   2613,  0.338280737,          0.5,  0.531781971
   2614, -0.676738024,          0.5,  0.500184655
   2615,    -2.034091,          0.5,  0.361862093
   2616,  -1.99044466,          0.5,   1.10102367
   2617,   -3.0879519,          0.5,  0.519978285
   2618,  -2.93196177,          0.5,   1.12413669
   2619,   -8.5420866,          0.5,    1.5952729
   2620,  -8.40893841,          0.5,  0.561505973
   2621,  -4.83951902,          0.5,  0.494309932
   2622,  -3.99139619,          0.5,  0.266604483
   2623,  -7.96955347,          0.5,   1.60918152
   2624,  -8.57875061,          0.5,   3.00663733
   2625,  -7.84652138,          0.5,   2.50828218
   2626,  -8.56418037,          0.5,   4.13932133
   2627,  -7.85972357,          0.5,    3.4419167
   2628,  -7.89827394,          0.5,   10.9902658
   2629,  -7.87490273,          0.5,   11.9330988
   2630,   -8.5064764,          0.5,   13.8398247
   2631,  -8.73374748,          0.5,   12.9915066
   2632,  -8.63232613,          0.5,   10.5811768
   2633,  -8.49956226,          0.5,   9.67612076
   2634,  -8.45814991,          0.5,   8.63794231
   2635,  -8.46423531,          0.5,   7.37290955
   2636,  -8.50687218,          0.5,   5.83176279
   2637,  -8.60064125,          0.5,   14.9797878
   2638,  -8.48878956,          0.5,   16.3477249
   2639,  -6.94748592,          0.5,   17.6069088
   2640,  -7.40183163,          0.5,   17.5466709
   2641,  -8.43778419,          0.5,   17.4094944
   2642,  -2.49873567,          0.5,   17.6254501
   2643,  -3.96629143,          0.5,   17.6397476
   2644,  -1.50522768,          0.5,   17.6132355
   2645, -0.413324714,          0.5,    17.454916
   2646,  0.633875549,          0.5,    17.550045
   2647,   2.06181812,          0.5,   17.5067329
   2648,   1.93425846,          0.5,   16.8882561
   2649,   3.01583314,          0.5,   17.6142025
   2650,   2.96312666,          0.5,   16.8870583
   2651,   8.56303787,          0.5,    15.989521
   2652,   8.45266438,          0.5,   16.9736748
   2653,   5.00168228,          0.5,   17.6411495
   2654,   4.03903866,          0.5,   17.6273918
   2655,   7.81373882,          0.5,    16.306509
   2656,   8.43384647,          0.5,   14.8934298
   2657,   8.55883789,          0.5,   15.4821682
   2658,   7.82873011,          0.5,   15.5039911
   2659,   8.56513786,          0.5,   13.8330641
   2660,   8.49036217,          0.5,    14.334981
   2661,   7.93523073,          0.5,   14.6198053
   2662,   7.90186024,          0.5,   7.01075506
   2663,    8.4738636,          0.5,   5.90066528
   2664,   8.72874355,          0.5,   5.00439119
   2665,   8.50957298,          0.5,   4.17302656
   2666,   8.58959007,          0.5,   2.51122403
   2667,    8.5265522,          0.5,   1.58770669
   2668,   8.47148991,          0.5,   0.53763175
   2669,  -4.92646027,          0.5,   17.4984627
   2670,  -5.49769783,          0.5,   17.5954399
   2671,  -5.99641562,          0.5,   17.6136227
   2672,  -6.48090506,          0.5,    17.618063
   2673,   4.97451544,          0.5,  0.536018074
   2674,   8.63846397,          0.5,   6.96528769
   2675,   8.49990654,          0.5,   8.32329369
   2676,   8.46898174,          0.5,   9.33791256
   2677,   8.39181137,          0.5,   10.4655495
   2678,   8.60994911,          0.5,   11.5287743
   2679,  -7.34762812,          0.5,  0.510729492
   2680,  -6.45626879,          0.5,  0.379051387
   2681,   7.29806471,          0.5,   1.17127383
   2682,  -8.47990608,          0.5,   12.0872278
   2683,   7.35540771,          0.5,   17.4795094
   2684,   6.43664312,          0.5,   17.6351204
   2685,   2.31214619,          0.5,   1.01506627
   2686,  -3.99625945,          0.5,  0.873704076
   2687,  -6.05159664,          0.5,   1.09987652
   2688,   -7.1620326,          0.5,   1.00455678
   2689,  -7.99967146,          0.5,   6.67410421
   2690,  -8.12657356,          0.5,   12.9964161
   2691,  -7.90049171,          0.5,   15.0518017
   2692,  -7.99508238,          0.5,   16.1620998
   2693,  -2.50052738,          0.5,   16.8711414
   2694,    3.9222343,          0.5,   17.0086613
   2695,   6.00257301,          0.5,   16.9163036
   2696,   7.87539768,          0.5,   11.4939833
   2697,   8.12267876,          0.5,   4.99548531
   2698,   7.87197971,          0.5,   2.92048097
   2699,   8.01587963,          0.5,   1.84664822
   2700,   7.89568281,          0.5,   17.4422073
   2701,   6.86573315,          0.5,   17.5469379
   2702,   5.96991634,          0.5,   17.6464729
   2703,   5.48997307,          0.5,   17.6416912
   2704,   4.51923704,          0.5,   17.6456375
   2705,   3.55752182,          0.5,   17.5134201
   2706,    2.5416131,          0.5,   17.6115952
   2707,   1.52376652,          0.5,      17.6159
   2708,   1.05813587,          0.5,   17.6254253
   2709,  0.147963658,          0.5,   17.4985218
   2710,  -0.99972266,          0.5,   17.5849171
   2711,  -2.00201726,          0.5,    17.621418
   2712,  -2.99401236,          0.5,   17.6295204
   2713,  -3.48585844,          0.5,   17.6351662
   2714,  -4.44184971,          0.5,   17.6180859
   2715,  -7.86108351,          0.5,   17.3222828
   2716,  -8.32042789,          0.5,   1.13711345
   2717,  -8.60451889,          0.5,   2.05094838
   2718,  -8.60653687,          0.5,   2.51642871
   2719,  -8.46081257,          0.5,   3.59405661
   2720,  -8.72653008,          0.5,    4.4924798
   2721,  -8.51726151,          0.5,   5.32105398
   2722,  -8.49991131,          0.5,   6.33913612
   2723,  -8.48563766,          0.5,   6.84435749
   2724,  -8.35788345,          0.5,   8.00419712
   2725,  -8.48060131,          0.5,   9.16540432
   2726,  -8.54977608,          0.5,   10.1526852
   2727,  -8.63822556,          0.5,   11.0317364
   2728,  -8.60404587,          0.5,   11.5123138
   2729,  -8.58008099,          0.5,   12.6387892
   2730,  -8.46062565,          0.5,    14.404624
   2731,  -8.62067127,          0.5,   15.4553576
   2732,  -8.54734039,          0.5,   15.8755713
   2733,  -8.45694447,          0.5,   16.8635635
   2734,  -7.86316729,          0.5,  0.542395771
   2735,  -6.87575388,          0.5,  0.452373505
   2736,  -5.97751713,          0.5,  0.399820089
   2737,  -5.40395403,          0.5,  0.540089786
   2738,  -3.63889909,          0.5,  0.420024425
   2739,    -2.512573,          0.5,  0.395316601
   2740,   -1.5815624,          0.5,  0.369001508
   2741,  -1.15262306,          0.5,  0.450613171
   2742, -0.169704303,          0.5,  0.514958501
   2743,   0.86220181,          0.5,  0.552243769
   2744,   2.12664342,          0.5,  0.539433181
   2745,   3.16533303,          0.5,  0.506898224
   2746,   3.67842102,          0.5,  0.498326629
   2747,   4.53369904,          0.5,  0.318448186
   2748,   7.97664356,          0.5,  0.542551637
   2749,   8.45888519,          0.5,   1.08961833
   2750,   8.60728359,          0.5,    2.0241363
   2751,   8.45032883,          0.5,   3.08827353
   2752,   8.48804855,          0.5,   3.65205646
   2753,   8.58244228,          0.5,   4.66496658
   2754,   8.60203552,          0.5,   6.48349953
   2755,   8.63270378,          0.5,   7.41772747
   2756,     8.550313,          0.5,   7.84787369
   2757,   8.48522854,          0.5,    8.8302269
   2758,   8.45627499,          0.5,   9.85904789
   2759,   8.57782841,          0.5,   11.0303583
   2760,   8.58462906,          0.5,    12.024847
   2761,    8.4618187,          0.5,    12.612772
   2762,   8.72194672,          0.5,   13.4953938
   2763,   8.51719379,          0.5,   16.4951134
   2764,   5.39286947,          0.5,   1.00923598
   2765,   7.99873114,          0.5,    3.8371799
   2766,  -7.95722961,          0.5,   14.1333981
   2767,  -5.13305902,          0.5,   1.04332423
   2768,  -5.52053738,          0.5,   16.8550892
   2769,   4.99731588,          0.5,   16.8890896
   2770,    4.4859848,          0.5,  0.921600282
   2771,  -8.12118149,          0.5,   4.50147152
   2772,   8.11248779,          0.5,   13.5046644
   2773,  -4.55398607,          0.5,   16.9958153
   2774,  -8.31181145,          0.5,   10.6689768
   2775,  -7.90826416,          0.5,   7.66806793
   2776,  -7.97634888,          0.5,   8.82846546
   2777,   -8.0060606,          0.5,   9.85726833
   2778,   7.98324919,          0.5,   9.16696262
   2779,   7.77208424,          0.5,   10.5140495
   2780,   8.26582432,          0.5,   11.1415796
   2781,  0.898449898,          0.5,   17.0371475
   2782, -0.138576031,          0.5,   16.9456844
   2783,  -1.51255584,          0.5,   16.8615589
   2784, -0.857917607,          0.5,  0.994718552
   2785,  0.166195288,          0.5,    1.0171448
   2786,   1.49146688,          0.5,   1.24531353
   2787,   8.00600243,          0.5,   8.14235497
   2788,   8.17817688,          0.5,   12.3675957
   2789,   8.18057346,          0.5,   2.84069085
   2790,   6.34566355,          0.5,   17.3230057
   2791,  -8.24814796,          0.5,   15.0180855
   2792,  -6.01734257,          0.5,  0.752438784
   2793,   5.95524645,          0.5,   17.2796383
   2794,   2.98677158,          0.5,   17.2477856
   2795,     8.190341,          0.5,   6.14830446
   2796,  -2.84148335,          0.5,  0.807414889
   2797,  -8.19170666,          0.5,   11.8416853
   2798,   7.17437029,          0.5,   16.9843502
   2799,  -6.46911383,          0.5,   17.2341557
   2800,    8.1749773,          0.5,   15.9681559
   2801,  -8.22064304,          0.5,   2.51780677
   2802,   6.95594835,          0.5,  0.800990403
   2803,   1.83829391,          0.5,   17.2127666
   2804,   8.31549168,          0.5,   7.33166075
   2805,  -1.66900814,          0.5,  0.687740803
   2806,   7.42209911,          0.5,  0.908430874
   2807,   8.07811546,          0.5,   16.4270401
   2808,   8.18891811,          0.5,   15.5186739
   2809,   6.48695326,          0.5,  0.767447889
   2810,   8.45725155,          0.5,   17.4630947
   2811,   1.15491271,          0.5,   1.10377347
   2812,   -7.7577548,          0.5,   8.00159836
   2813,   -1.0316062,          0.5,   16.8530884
   2814,   7.91398382,          0.5,   10.1611662
   2815,   5.48661375,          0.5,   17.2676716
   2816,   5.00314999,          0.5,   17.2673531
   2817,  -7.24111795,          0.5,   17.2432346
   2818,  -6.90208864,          0.5,   17.2397213
   2819,  -6.00067091,          0.5,   17.2332211
   2820,  -8.23916245,          0.5,   1.75508296
   2821,  -8.23323917,          0.5,   2.09264565
   2822,  -8.20787239,          0.5,   2.96320748
   2823,   6.02294779,          0.5,  0.748679519
   2824,    5.6240654,          0.5,  0.714084983
   2825,   4.53483343,          0.5,    17.276823
   2826,   4.14850187,          0.5,   17.3072262
   2827,  -8.17100334,          0.5,   3.34844017
   2828,   3.33753848,          0.5,   17.2144089
   2829,  -8.58339024,          0.5,   4.83119249
   2830,  -8.23577213,          0.5,   11.4677773
   2831,   1.13745117,          0.5,   17.3067417
   2832, -0.658863366,          0.5,   17.1772079
   2833,   -1.0472939,          0.5,    17.220787
   2834,  -1.51573825,          0.5,   17.2361202
   2835,  -2.00488687,          0.5,   17.2431965
   2836,  -2.49935818,          0.5,   17.2477722
   2837,  -2.99341393,          0.5,   17.2520638
   2838,  -3.48126221,          0.5,   17.2577591
   2839,  -3.94566035,          0.5,   17.2677383
   2840,  -4.33010864,          0.5,   17.2965393
   2841,  -5.15153837,          0.5,   17.1975842
   2842,  -5.53879452,          0.5,   17.2261086
   2843,  -8.58333778,          0.5,   13.3349609
   2844,  -8.19144058,          0.5,   14.6504469
   2845,  -8.30537605,          0.5,   15.3767538
   2846,  -2.46782899,          0.5,  0.763178289
   2847,  -4.33478642,          0.5,   0.41710037
   2848,  -5.65002584,          0.5,   0.80930835
   2849,  -6.37706757,          0.5,  0.694701135
   2850,  -8.26444721,          0.5,   11.0373363
   2851,  -2.03814483,          0.5,   0.73499459
   2852,   8.26696777,          0.5,   6.96219873
   2853,   2.63784194,          0.5,   17.2858334
   2854,   1.49017203,          0.5,   17.2558289
   2855,   8.23728848,          0.5,   6.52848005
   2856,   8.29178333,          0.5,   2.09824634
   2857,   8.23726177,          0.5,   2.47182727
   2858,   8.15237331,          0.5,   15.1372337
   2859,   8.56809235,          0.5,   13.1478786
   2860,   8.22116089,          0.5,    11.981245
   2861,   8.23941994,          0.5,    11.533576
   2862,   8.57458305,          0.5,   5.35429764
   2863,         -7.5,           1.,          1.5
   2864,          7.5,           1.,          1.5
   2865,          7.5,           1.,         16.5
   2866,         -7.5,           1.,         16.5
   2867,           9.,           1.,          18.
   2868,          -9.,           1.,          18.
   2869,          -9.,           1.,           0.
   2870,           9.,           1.,           0.
   2871,          -7.,           1.,          1.5
   2872,         -6.5,           1.,          1.5
   2873,          -6.,           1.,          1.5
   2874,         -5.5,           1.,          1.5
   2875,          -5.,           1.,          1.5
   2876,         -4.5,           1.,          1.5
   2877,          -4.,           1.,          1.5
   2878,         -3.5,           1.,          1.5
   2879,          -3.,           1.,          1.5
   2880,         -2.5,           1.,          1.5
   2881,          -2.,           1.,          1.5
   2882,         -1.5,           1.,          1.5
   2883,          -1.,           1.,          1.5
   2884,         -0.5,           1.,          1.5
   2885,           0.,           1.,          1.5
   2886,          0.5,           1.,          1.5
   2887,           1.,           1.,          1.5
   2888,          1.5,           1.,          1.5
   2889,           2.,           1.,          1.5
   2890,          2.5,           1.,          1.5
   2891,           3.,           1.,          1.5
   2892,          3.5,           1.,          1.5
   2893,           4.,           1.,          1.5
   2894,          4.5,           1.,          1.5
   2895,           5.,           1.,          1.5
   2896,          5.5,           1.,          1.5
   2897,           6.,           1.,          1.5
   2898,          6.5,           1.,          1.5
   2899,           7.,           1.,          1.5
   2900,          7.5,           1.,           2.
   2901,          7.5,           1.,          2.5
   2902,          7.5,           1.,           3.
   2903,          7.5,           1.,          3.5
   2904,          7.5,           1.,           4.
   2905,          7.5,           1.,          4.5
   2906,          7.5,           1.,           5.
   2907,          7.5,           1.,          5.5
   2908,          7.5,           1.,           6.
   2909,          7.5,           1.,          6.5
   2910,          7.5,           1.,           7.
   2911,          7.5,           1.,          7.5
   2912,          7.5,           1.,           8.
   2913,          7.5,           1.,          8.5
   2914,          7.5,           1.,           9.
   2915,          7.5,           1.,          9.5
   2916,          7.5,           1.,          10.
   2917,          7.5,           1.,         10.5
   2918,          7.5,           1.,          11.
   2919,          7.5,           1.,         11.5
   2920,          7.5,           1.,          12.
   2921,          7.5,           1.,         12.5
   2922,          7.5,           1.,          13.
   2923,          7.5,           1.,         13.5
   2924,          7.5,           1.,          14.
   2925,          7.5,           1.,         14.5
   2926,          7.5,           1.,          15.
   2927,          7.5,           1.,         15.5
   2928,          7.5,           1.,          16.
   2929,           7.,           1.,         16.5
   2930,          6.5,           1.,         16.5
   2931,           6.,           1.,         16.5
   2932,          5.5,           1.,         16.5
   2933,           5.,           1.,         16.5
   2934,          4.5,           1.,         16.5
   2935,           4.,           1.,         16.5
   2936,          3.5,           1.,         16.5
   2937,           3.,           1.,         16.5
   2938,          2.5,           1.,         16.5
   2939,           2.,           1.,         16.5
   2940,          1.5,           1.,         16.5
   2941,           1.,           1.,         16.5
   2942,          0.5,           1.,         16.5
   2943,           0.,           1.,         16.5
   2944,         -0.5,           1.,         16.5
   2945,          -1.,           1.,         16.5
   2946,         -1.5,           1.,         16.5
   2947,          -2.,           1.,         16.5
   2948,         -2.5,           1.,         16.5
   2949,          -3.,           1.,         16.5
   2950,         -3.5,           1.,         16.5
   2951,          -4.,           1.,         16.5
   2952,         -4.5,           1.,         16.5
   2953,          -5.,           1.,         16.5
   2954,         -5.5,           1.,         16.5
   2955,          -6.,           1.,         16.5
   2956,         -6.5,           1.,         16.5
   2957,          -7.,           1.,         16.5
   2958,         -7.5,           1.,          16.
   2959,         -7.5,           1.,         15.5
   2960,         -7.5,           1.,          15.
   2961,         -7.5,           1.,         14.5
   2962,         -7.5,           1.,          14.
   2963,         -7.5,           1.,         13.5
   2964,         -7.5,           1.,          13.
   2965,         -7.5,           1.,         12.5
   2966,         -7.5,           1.,          12.
   2967,         -7.5,           1.,         11.5
   2968,         -7.5,           1.,          11.
   2969,         -7.5,           1.,         10.5
   2970,         -7.5,           1.,          10.
   2971,         -7.5,           1.,          9.5
   2972,         -7.5,           1.,           9.
   2973,         -7.5,           1.,          8.5
   2974,         -7.5,           1.,           8.
   2975,         -7.5,           1.,          7.5
   2976,         -7.5,           1.,           7.
   2977,         -7.5,           1.,          6.5
   2978,         -7.5,           1.,           6.
   2979,         -7.5,           1.,          5.5
   2980,         -7.5,           1.,           5.
   2981,         -7.5,           1.,          4.5
   2982,         -7.5,           1.,           4.
   2983,         -7.5,           1.,          3.5
   2984,         -7.5,           1.,           3.
   2985,         -7.5,           1.,          2.5
   2986,         -7.5,           1.,           2.
   2987,          8.5,           1.,          18.
   2988,           8.,           1.,          18.
   2989,          7.5,           1.,          18.
   2990,           7.,           1.,          18.
   2991,          6.5,           1.,          18.
   2992,           6.,           1.,          18.
   2993,          5.5,           1.,          18.
   2994,           5.,           1.,          18.
   2995,          4.5,           1.,          18.
   2996,           4.,           1.,          18.
   2997,          3.5,           1.,          18.
   2998,           3.,           1.,          18.
   2999,          2.5,           1.,          18.
   3000,           2.,           1.,          18.
   3001,          1.5,           1.,          18.
   3002,           1.,           1.,          18.
   3003,          0.5,           1.,          18.
   3004,           0.,           1.,          18.
   3005,         -0.5,           1.,          18.
   3006,          -1.,           1.,          18.
   3007,         -1.5,           1.,          18.
   3008,          -2.,           1.,          18.
   3009,         -2.5,           1.,          18.
   3010,          -3.,           1.,          18.
   3011,         -3.5,           1.,          18.
   3012,          -4.,           1.,          18.
   3013,         -4.5,           1.,          18.
   3014,          -5.,           1.,          18.
   3015,         -5.5,           1.,          18.
   3016,          -6.,           1.,          18.
   3017,         -6.5,           1.,          18.
   3018,          -7.,           1.,          18.
   3019,         -7.5,           1.,          18.
   3020,          -8.,           1.,          18.
   3021,         -8.5,           1.,          18.
   3022,          -9.,           1.,         17.5
   3023,          -9.,           1.,          17.
   3024,          -9.,           1.,         16.5
   3025,          -9.,           1.,          16.
   3026,          -9.,           1.,         15.5
   3027,          -9.,           1.,          15.
   3028,          -9.,           1.,         14.5
   3029,          -9.,           1.,          14.
   3030,          -9.,           1.,         13.5
   3031,          -9.,           1.,          13.
   3032,          -9.,           1.,         12.5
   3033,          -9.,           1.,          12.
   3034,          -9.,           1.,         11.5
   3035,          -9.,           1.,          11.
   3036,          -9.,           1.,         10.5
   3037,          -9.,           1.,          10.
   3038,          -9.,           1.,          9.5
   3039,          -9.,           1.,           9.
   3040,          -9.,           1.,          8.5
   3041,          -9.,           1.,           8.
   3042,          -9.,           1.,          7.5
   3043,          -9.,           1.,           7.
   3044,          -9.,           1.,          6.5
   3045,          -9.,           1.,           6.
   3046,          -9.,           1.,          5.5
   3047,          -9.,           1.,           5.
   3048,          -9.,           1.,          4.5
   3049,          -9.,           1.,           4.
   3050,          -9.,           1.,          3.5
   3051,          -9.,           1.,           3.
   3052,          -9.,           1.,          2.5
   3053,          -9.,           1.,           2.
   3054,          -9.,           1.,          1.5
   3055,          -9.,           1.,           1.
   3056,          -9.,           1.,          0.5
   3057,         -8.5,           1.,           0.
   3058,          -8.,           1.,           0.
   3059,         -7.5,           1.,           0.
   3060,          -7.,           1.,           0.
   3061,         -6.5,           1.,           0.
   3062,          -6.,           1.,           0.
   3063,         -5.5,           1.,           0.
   3064,          -5.,           1.,           0.
   3065,         -4.5,           1.,           0.
   3066,          -4.,           1.,           0.
   3067,         -3.5,           1.,           0.
   3068,          -3.,           1.,           0.
   3069,         -2.5,           1.,           0.
   3070,          -2.,           1.,           0.
   3071,         -1.5,           1.,           0.
   3072,          -1.,           1.,           0.
   3073,         -0.5,           1.,           0.
   3074,           0.,           1.,           0.
   3075,          0.5,           1.,           0.
   3076,           1.,           1.,           0.
   3077,          1.5,           1.,           0.
   3078,           2.,           1.,           0.
   3079,          2.5,           1.,           0.
   3080,           3.,           1.,           0.
   3081,          3.5,           1.,           0.
   3082,           4.,           1.,           0.
   3083,          4.5,           1.,           0.
   3084,           5.,           1.,           0.
   3085,          5.5,           1.,           0.
   3086,           6.,           1.,           0.
   3087,          6.5,           1.,           0.
   3088,           7.,           1.,           0.
   3089,          7.5,           1.,           0.
   3090,           8.,           1.,           0.
   3091,          8.5,           1.,           0.
   3092,           9.,           1.,          0.5
   3093,           9.,           1.,           1.
   3094,           9.,           1.,          1.5
   3095,           9.,           1.,           2.
   3096,           9.,           1.,          2.5
   3097,           9.,           1.,           3.
   3098,           9.,           1.,          3.5
   3099,           9.,           1.,           4.
   3100,           9.,           1.,          4.5
   3101,           9.,           1.,           5.
   3102,           9.,           1.,          5.5
   3103,           9.,           1.,           6.
   3104,           9.,           1.,          6.5
   3105,           9.,           1.,           7.
   3106,           9.,           1.,          7.5
   3107,           9.,           1.,           8.
   3108,           9.,           1.,          8.5
   3109,           9.,           1.,           9.
   3110,           9.,           1.,          9.5
   3111,           9.,           1.,          10.
   3112,           9.,           1.,         10.5
   3113,           9.,           1.,          11.
   3114,           9.,           1.,         11.5
   3115,           9.,           1.,          12.
   3116,           9.,           1.,         12.5
   3117,           9.,           1.,          13.
   3118,           9.,           1.,         13.5
   3119,           9.,           1.,          14.
   3120,           9.,           1.,         14.5
   3121,           9.,           1.,          15.
   3122,           9.,           1.,         15.5
   3123,           9.,           1.,          16.
   3124,           9.,           1.,         16.5
   3125,           9.,           1.,          17.
   3126,           9.,           1.,         17.5
   3127,          -7.,           1.,           2.
   3128,         -6.5,           1.,           2.
   3129,          -6.,           1.,           2.
   3130,         -5.5,           1.,           2.
   3131,          -5.,           1.,           2.
   3132,         -4.5,           1.,           2.
   3133,          -4.,           1.,           2.
   3134,         -3.5,           1.,           2.
   3135,          -3.,           1.,           2.
   3136,         -2.5,           1.,           2.
   3137,          -2.,           1.,           2.
   3138,         -1.5,           1.,           2.
   3139,          -1.,           1.,           2.
   3140,         -0.5,           1.,           2.
   3141,           0.,           1.,           2.
   3142,          0.5,           1.,           2.
   3143,           1.,           1.,           2.
   3144,          1.5,           1.,           2.
   3145,           2.,           1.,           2.
   3146,          2.5,           1.,           2.
   3147,           3.,           1.,           2.
   3148,          3.5,           1.,           2.
   3149,           4.,           1.,           2.
   3150,          4.5,           1.,           2.
   3151,           5.,           1.,           2.
   3152,          5.5,           1.,           2.
   3153,           6.,           1.,           2.
   3154,          6.5,           1.,           2.
   3155,           7.,           1.,           2.
   3156,          -7.,           1.,          2.5
   3157,         -6.5,           1.,          2.5
   3158,          -6.,           1.,          2.5
   3159,         -5.5,           1.,          2.5
   3160,          -5.,           1.,          2.5
   3161,         -4.5,           1.,          2.5
   3162,          -4.,           1.,          2.5
   3163,         -3.5,           1.,          2.5
   3164,          -3.,           1.,          2.5
   3165,         -2.5,           1.,          2.5
   3166,          -2.,           1.,          2.5
   3167,         -1.5,           1.,          2.5
   3168,          -1.,           1.,          2.5
   3169,         -0.5,           1.,          2.5
   3170,           0.,           1.,          2.5
   3171,          0.5,           1.,          2.5
   3172,           1.,           1.,          2.5
   3173,          1.5,           1.,          2.5
   3174,           2.,           1.,          2.5
   3175,          2.5,           1.,          2.5
   3176,           3.,           1.,          2.5
   3177,          3.5,           1.,          2.5
   3178,           4.,           1.,          2.5
   3179,          4.5,           1.,          2.5
   3180,           5.,           1.,          2.5
   3181,          5.5,           1.,          2.5
   3182,           6.,           1.,          2.5
   3183,          6.5,           1.,          2.5
   3184,           7.,           1.,          2.5
   3185,          -7.,           1.,           3.
   3186,         -6.5,           1.,           3.
   3187,          -6.,           1.,           3.
   3188,         -5.5,           1.,           3.
   3189,          -5.,           1.,           3.
   3190,         -4.5,           1.,           3.
   3191,          -4.,           1.,           3.
   3192,         -3.5,           1.,           3.
   3193,          -3.,           1.,           3.
   3194,         -2.5,           1.,           3.
   3195,          -2.,           1.,           3.
   3196,         -1.5,           1.,           3.
   3197,          -1.,           1.,           3.
   3198,         -0.5,           1.,           3.
   3199,           0.,           1.,           3.
   3200,          0.5,           1.,           3.
   3201,           1.,           1.,           3.
   3202,          1.5,           1.,           3.
   3203,           2.,           1.,           3.
   3204,          2.5,           1.,           3.
   3205,           3.,           1.,           3.
   3206,          3.5,           1.,           3.
   3207,           4.,           1.,           3.
   3208,          4.5,           1.,           3.
   3209,           5.,           1.,           3.
   3210,          5.5,           1.,           3.
   3211,           6.,           1.,           3.
   3212,          6.5,           1.,           3.
   3213,           7.,           1.,           3.
   3214,          -7.,           1.,          3.5
   3215,         -6.5,           1.,          3.5
   3216,          -6.,           1.,          3.5
   3217,         -5.5,           1.,          3.5
   3218,          -5.,           1.,          3.5
   3219,         -4.5,           1.,          3.5
   3220,          -4.,           1.,          3.5
   3221,         -3.5,           1.,          3.5
   3222,          -3.,           1.,          3.5
   3223,         -2.5,           1.,          3.5
   3224,          -2.,           1.,          3.5
   3225,         -1.5,           1.,          3.5
   3226,          -1.,           1.,          3.5
   3227,         -0.5,           1.,          3.5
   3228,           0.,           1.,          3.5
   3229,          0.5,           1.,          3.5
   3230,           1.,           1.,          3.5
   3231,          1.5,           1.,          3.5
   3232,           2.,           1.,          3.5
   3233,          2.5,           1.,          3.5
   3234,           3.,           1.,          3.5
   3235,          3.5,           1.,          3.5
   3236,           4.,           1.,          3.5
   3237,          4.5,           1.,          3.5
   3238,           5.,           1.,          3.5
   3239,          5.5,           1.,          3.5
   3240,           6.,           1.,          3.5
   3241,          6.5,           1.,          3.5
   3242,           7.,           1.,          3.5
   3243,          -7.,           1.,           4.
   3244,         -6.5,           1.,           4.
   3245,          -6.,           1.,           4.
   3246,         -5.5,           1.,           4.
   3247,          -5.,           1.,           4.
   3248,         -4.5,           1.,           4.
   3249,          -4.,           1.,           4.
   3250,         -3.5,           1.,           4.
   3251,          -3.,           1.,           4.
   3252,         -2.5,           1.,           4.
   3253,          -2.,           1.,           4.
   3254,         -1.5,           1.,           4.
   3255,          -1.,           1.,           4.
   3256,         -0.5,           1.,           4.
   3257,           0.,           1.,           4.
   3258,          0.5,           1.,           4.
   3259,           1.,           1.,           4.
   3260,          1.5,           1.,           4.
   3261,           2.,           1.,           4.
   3262,          2.5,           1.,           4.
   3263,           3.,           1.,           4.
   3264,          3.5,           1.,           4.
   3265,           4.,           1.,           4.
   3266,          4.5,           1.,           4.
   3267,           5.,           1.,           4.
   3268,          5.5,           1.,           4.
   3269,           6.,           1.,           4.
   3270,          6.5,           1.,           4.
   3271,           7.,           1.,           4.
   3272,          -7.,           1.,          4.5
   3273,         -6.5,           1.,          4.5
   3274,          -6.,           1.,          4.5
   3275,         -5.5,           1.,          4.5
   3276,          -5.,           1.,          4.5
   3277,         -4.5,           1.,          4.5
   3278,          -4.,           1.,          4.5
   3279,         -3.5,           1.,          4.5
   3280,          -3.,           1.,          4.5
   3281,         -2.5,           1.,          4.5
   3282,          -2.,           1.,          4.5
   3283,         -1.5,           1.,          4.5
   3284,          -1.,           1.,          4.5
   3285,         -0.5,           1.,          4.5
   3286,           0.,           1.,          4.5
   3287,          0.5,           1.,          4.5
   3288,           1.,           1.,          4.5
   3289,          1.5,           1.,          4.5
   3290,           2.,           1.,          4.5
   3291,          2.5,           1.,          4.5
   3292,           3.,           1.,          4.5
   3293,          3.5,           1.,          4.5
   3294,           4.,           1.,          4.5
   3295,          4.5,           1.,          4.5
   3296,           5.,           1.,          4.5
   3297,          5.5,           1.,          4.5
   3298,           6.,           1.,          4.5
   3299,          6.5,           1.,          4.5
   3300,           7.,           1.,          4.5
   3301,          -7.,           1.,           5.
   3302,         -6.5,           1.,           5.
   3303,          -6.,           1.,           5.
   3304,         -5.5,           1.,           5.
   3305,          -5.,           1.,           5.
   3306,         -4.5,           1.,           5.
   3307,          -4.,           1.,           5.
   3308,         -3.5,           1.,           5.
   3309,          -3.,           1.,           5.
   3310,         -2.5,           1.,           5.
   3311,          -2.,           1.,           5.
   3312,         -1.5,           1.,           5.
   3313,          -1.,           1.,           5.
   3314,         -0.5,           1.,           5.
   3315,           0.,           1.,           5.
   3316,          0.5,           1.,           5.
   3317,           1.,           1.,           5.
   3318,          1.5,           1.,           5.
   3319,           2.,           1.,           5.
   3320,          2.5,           1.,           5.
   3321,           3.,           1.,           5.
   3322,          3.5,           1.,           5.
   3323,           4.,           1.,           5.
   3324,          4.5,           1.,           5.
   3325,           5.,           1.,           5.
   3326,          5.5,           1.,           5.
   3327,           6.,           1.,           5.
   3328,          6.5,           1.,           5.
   3329,           7.,           1.,           5.
   3330,          -7.,           1.,          5.5
   3331,         -6.5,           1.,          5.5
   3332,          -6.,           1.,          5.5
   3333,         -5.5,           1.,          5.5
   3334,          -5.,           1.,          5.5
   3335,         -4.5,           1.,          5.5
   3336,          -4.,           1.,          5.5
   3337,         -3.5,           1.,          5.5
   3338,          -3.,           1.,          5.5
   3339,         -2.5,           1.,          5.5
   3340,          -2.,           1.,          5.5
   3341,         -1.5,           1.,          5.5
   3342,          -1.,           1.,          5.5
   3343,         -0.5,           1.,          5.5
   3344,           0.,           1.,          5.5
   3345,          0.5,           1.,          5.5
   3346,           1.,           1.,          5.5
   3347,          1.5,           1.,          5.5
   3348,           2.,           1.,          5.5
   3349,          2.5,           1.,          5.5
   3350,           3.,           1.,          5.5
   3351,          3.5,           1.,          5.5
   3352,           4.,           1.,          5.5
   3353,          4.5,           1.,          5.5
   3354,           5.,           1.,          5.5
   3355,          5.5,           1.,          5.5
   3356,           6.,           1.,          5.5
   3357,          6.5,           1.,          5.5
   3358,           7.,           1.,          5.5
   3359,          -7.,           1.,           6.
   3360,         -6.5,           1.,           6.
   3361,          -6.,           1.,           6.
   3362,         -5.5,           1.,           6.
   3363,          -5.,           1.,           6.
   3364,         -4.5,           1.,           6.
   3365,          -4.,           1.,           6.
   3366,         -3.5,           1.,           6.
   3367,          -3.,           1.,           6.
   3368,         -2.5,           1.,           6.
   3369,          -2.,           1.,           6.
   3370,         -1.5,           1.,           6.
   3371,          -1.,           1.,           6.
   3372,         -0.5,           1.,           6.
   3373,           0.,           1.,           6.
   3374,          0.5,           1.,           6.
   3375,           1.,           1.,           6.
   3376,          1.5,           1.,           6.
   3377,           2.,           1.,           6.
   3378,          2.5,           1.,           6.
   3379,           3.,           1.,           6.
   3380,          3.5,           1.,           6.
   3381,           4.,           1.,           6.
   3382,          4.5,           1.,           6.
   3383,           5.,           1.,           6.
   3384,          5.5,           1.,           6.
   3385,           6.,           1.,           6.
   3386,          6.5,           1.,           6.
   3387,           7.,           1.,           6.
   3388,          -7.,           1.,          6.5
   3389,         -6.5,           1.,          6.5
   3390,          -6.,           1.,          6.5
   3391,         -5.5,           1.,          6.5
   3392,          -5.,           1.,          6.5
   3393,         -4.5,           1.,          6.5
   3394,          -4.,           1.,          6.5
   3395,         -3.5,           1.,          6.5
   3396,          -3.,           1.,          6.5
   3397,         -2.5,           1.,          6.5
   3398,          -2.,           1.,          6.5
   3399,         -1.5,           1.,          6.5
   3400,          -1.,           1.,          6.5
   3401,         -0.5,           1.,          6.5
   3402,           0.,           1.,          6.5
   3403,          0.5,           1.,          6.5
   3404,           1.,           1.,          6.5
   3405,          1.5,           1.,          6.5
   3406,           2.,           1.,          6.5
   3407,          2.5,           1.,          6.5
   3408,           3.,           1.,          6.5
   3409,          3.5,           1.,          6.5
   3410,           4.,           1.,          6.5
   3411,          4.5,           1.,          6.5
   3412,           5.,           1.,          6.5
   3413,          5.5,           1.,          6.5
   3414,           6.,           1.,          6.5
   3415,          6.5,           1.,          6.5
   3416,           7.,           1.,          6.5
   3417,          -7.,           1.,           7.
   3418,         -6.5,           1.,           7.
   3419,          -6.,           1.,           7.
   3420,         -5.5,           1.,           7.
   3421,          -5.,           1.,           7.
   3422,         -4.5,           1.,           7.
   3423,          -4.,           1.,           7.
   3424,         -3.5,           1.,           7.
   3425,          -3.,           1.,           7.
   3426,         -2.5,           1.,           7.
   3427,          -2.,           1.,           7.
   3428,         -1.5,           1.,           7.
   3429,          -1.,           1.,           7.
   3430,         -0.5,           1.,           7.
   3431,           0.,           1.,           7.
   3432,          0.5,           1.,           7.
   3433,           1.,           1.,           7.
   3434,          1.5,           1.,           7.
   3435,           2.,           1.,           7.
   3436,          2.5,           1.,           7.
   3437,           3.,           1.,           7.
   3438,          3.5,           1.,           7.
   3439,           4.,           1.,           7.
   3440,          4.5,           1.,           7.
   3441,           5.,           1.,           7.
   3442,          5.5,           1.,           7.
   3443,           6.,           1.,           7.
   3444,          6.5,           1.,           7.
   3445,           7.,           1.,           7.
   3446,          -7.,           1.,          7.5
   3447,         -6.5,           1.,          7.5
   3448,          -6.,           1.,          7.5
   3449,         -5.5,           1.,          7.5
   3450,          -5.,           1.,          7.5
   3451,         -4.5,           1.,          7.5
   3452,          -4.,           1.,          7.5
   3453,         -3.5,           1.,          7.5
   3454,          -3.,           1.,          7.5
   3455,         -2.5,           1.,          7.5
   3456,          -2.,           1.,          7.5
   3457,         -1.5,           1.,          7.5
   3458,          -1.,           1.,          7.5
   3459,         -0.5,           1.,          7.5
   3460,           0.,           1.,          7.5
   3461,          0.5,           1.,          7.5
   3462,           1.,           1.,          7.5
   3463,          1.5,           1.,          7.5
   3464,           2.,           1.,          7.5
   3465,          2.5,           1.,          7.5
   3466,           3.,           1.,          7.5
   3467,          3.5,           1.,          7.5
   3468,           4.,           1.,          7.5
   3469,          4.5,           1.,          7.5
   3470,           5.,           1.,          7.5
   3471,          5.5,           1.,          7.5
   3472,           6.,           1.,          7.5
   3473,          6.5,           1.,          7.5
   3474,           7.,           1.,          7.5
   3475,          -7.,           1.,           8.
   3476,         -6.5,           1.,           8.
   3477,          -6.,           1.,           8.
   3478,         -5.5,           1.,           8.
   3479,          -5.,           1.,           8.
   3480,         -4.5,           1.,           8.
   3481,          -4.,           1.,           8.
   3482,         -3.5,           1.,           8.
   3483,          -3.,           1.,           8.
   3484,         -2.5,           1.,           8.
   3485,          -2.,           1.,           8.
   3486,         -1.5,           1.,           8.
   3487,          -1.,           1.,           8.
   3488,         -0.5,           1.,           8.
   3489,           0.,           1.,           8.
   3490,          0.5,           1.,           8.
   3491,           1.,           1.,           8.
   3492,          1.5,           1.,           8.
   3493,           2.,           1.,           8.
   3494,          2.5,           1.,           8.
   3495,           3.,           1.,           8.
   3496,          3.5,           1.,           8.
   3497,           4.,           1.,           8.
   3498,          4.5,           1.,           8.
   3499,           5.,           1.,           8.
   3500,          5.5,           1.,           8.
   3501,           6.,           1.,           8.
   3502,          6.5,           1.,           8.
   3503,           7.,           1.,           8.
   3504,          -7.,           1.,          8.5
   3505,         -6.5,           1.,          8.5
   3506,          -6.,           1.,          8.5
   3507,         -5.5,           1.,          8.5
   3508,          -5.,           1.,          8.5
   3509,         -4.5,           1.,          8.5
   3510,          -4.,           1.,          8.5
   3511,         -3.5,           1.,          8.5
   3512,          -3.,           1.,          8.5
   3513,         -2.5,           1.,          8.5
   3514,          -2.,           1.,          8.5
   3515,         -1.5,           1.,          8.5
   3516,          -1.,           1.,          8.5
   3517,         -0.5,           1.,          8.5
   3518,           0.,           1.,          8.5
   3519,          0.5,           1.,          8.5
   3520,           1.,           1.,          8.5
   3521,          1.5,           1.,          8.5
   3522,           2.,           1.,          8.5
   3523,          2.5,           1.,          8.5
   3524,           3.,           1.,          8.5
   3525,          3.5,           1.,          8.5
   3526,           4.,           1.,          8.5
   3527,          4.5,           1.,          8.5
   3528,           5.,           1.,          8.5
   3529,          5.5,           1.,          8.5
   3530,           6.,           1.,          8.5
   3531,          6.5,           1.,          8.5
   3532,           7.,           1.,          8.5
   3533,          -7.,           1.,           9.
   3534,         -6.5,           1.,           9.
   3535,          -6.,           1.,           9.
   3536,         -5.5,           1.,           9.
   3537,          -5.,           1.,           9.
   3538,         -4.5,           1.,           9.
   3539,          -4.,           1.,           9.
   3540,         -3.5,           1.,           9.
   3541,          -3.,           1.,           9.
   3542,         -2.5,           1.,           9.
   3543,          -2.,           1.,           9.
   3544,         -1.5,           1.,           9.
   3545,          -1.,           1.,           9.
   3546,         -0.5,           1.,           9.
   3547,           0.,           1.,           9.
   3548,          0.5,           1.,           9.
   3549,           1.,           1.,           9.
   3550,          1.5,           1.,           9.
   3551,           2.,           1.,           9.
   3552,          2.5,           1.,           9.
   3553,           3.,           1.,           9.
   3554,          3.5,           1.,           9.
   3555,           4.,           1.,           9.
   3556,          4.5,           1.,           9.
   3557,           5.,           1.,           9.
   3558,          5.5,           1.,           9.
   3559,           6.,           1.,           9.
   3560,          6.5,           1.,           9.
   3561,           7.,           1.,           9.
   3562,          -7.,           1.,          9.5
   3563,         -6.5,           1.,          9.5
   3564,          -6.,           1.,          9.5
   3565,         -5.5,           1.,          9.5
   3566,          -5.,           1.,          9.5
   3567,         -4.5,           1.,          9.5
   3568,          -4.,           1.,          9.5
   3569,         -3.5,           1.,          9.5
   3570,          -3.,           1.,          9.5
   3571,         -2.5,           1.,          9.5
   3572,          -2.,           1.,          9.5
   3573,         -1.5,           1.,          9.5
   3574,          -1.,           1.,          9.5
   3575,         -0.5,           1.,          9.5
   3576,           0.,           1.,          9.5
   3577,          0.5,           1.,          9.5
   3578,           1.,           1.,          9.5
   3579,          1.5,           1.,          9.5
   3580,           2.,           1.,          9.5
   3581,          2.5,           1.,          9.5
   3582,           3.,           1.,          9.5
   3583,          3.5,           1.,          9.5
   3584,           4.,           1.,          9.5
   3585,          4.5,           1.,          9.5
   3586,           5.,           1.,          9.5
   3587,          5.5,           1.,          9.5
   3588,           6.,           1.,          9.5
   3589,          6.5,           1.,          9.5
   3590,           7.,           1.,          9.5
   3591,          -7.,           1.,          10.
   3592,         -6.5,           1.,          10.
   3593,          -6.,           1.,          10.
   3594,         -5.5,           1.,          10.
   3595,          -5.,           1.,          10.
   3596,         -4.5,           1.,          10.
   3597,          -4.,           1.,          10.
   3598,         -3.5,           1.,          10.
   3599,          -3.,           1.,          10.
   3600,         -2.5,           1.,          10.
   3601,          -2.,           1.,          10.
   3602,         -1.5,           1.,          10.
   3603,          -1.,           1.,          10.
   3604,         -0.5,           1.,          10.
   3605,           0.,           1.,          10.
   3606,          0.5,           1.,          10.
   3607,           1.,           1.,          10.
   3608,          1.5,           1.,          10.
   3609,           2.,           1.,          10.
   3610,          2.5,           1.,          10.
   3611,           3.,           1.,          10.
   3612,          3.5,           1.,          10.
   3613,           4.,           1.,          10.
   3614,          4.5,           1.,          10.
   3615,           5.,           1.,          10.
   3616,          5.5,           1.,          10.
   3617,           6.,           1.,          10.
   3618,          6.5,           1.,          10.
   3619,           7.,           1.,          10.
   3620,          -7.,           1.,         10.5
   3621,         -6.5,           1.,         10.5
   3622,          -6.,           1.,         10.5
   3623,         -5.5,           1.,         10.5
   3624,          -5.,           1.,         10.5
   3625,         -4.5,           1.,         10.5
   3626,          -4.,           1.,         10.5
   3627,         -3.5,           1.,         10.5
   3628,          -3.,           1.,         10.5
   3629,         -2.5,           1.,         10.5
   3630,          -2.,           1.,         10.5
   3631,         -1.5,           1.,         10.5
   3632,          -1.,           1.,         10.5
   3633,         -0.5,           1.,         10.5
   3634,           0.,           1.,         10.5
   3635,          0.5,           1.,         10.5
   3636,           1.,           1.,         10.5
   3637,          1.5,           1.,         10.5
   3638,           2.,           1.,         10.5
   3639,          2.5,           1.,         10.5
   3640,           3.,           1.,         10.5
   3641,          3.5,           1.,         10.5
   3642,           4.,           1.,         10.5
   3643,          4.5,           1.,         10.5
   3644,           5.,           1.,         10.5
   3645,          5.5,           1.,         10.5
   3646,           6.,           1.,         10.5
   3647,          6.5,           1.,         10.5
   3648,           7.,           1.,         10.5
   3649,          -7.,           1.,          11.
   3650,         -6.5,           1.,          11.
   3651,          -6.,           1.,          11.
   3652,         -5.5,           1.,          11.
   3653,          -5.,           1.,          11.
   3654,         -4.5,           1.,          11.
   3655,          -4.,           1.,          11.
   3656,         -3.5,           1.,          11.
   3657,          -3.,           1.,          11.
   3658,         -2.5,           1.,          11.
   3659,          -2.,           1.,          11.
   3660,         -1.5,           1.,          11.
   3661,          -1.,           1.,          11.
   3662,         -0.5,           1.,          11.
   3663,           0.,           1.,          11.
   3664,          0.5,           1.,          11.
   3665,           1.,           1.,          11.
   3666,          1.5,           1.,          11.
   3667,           2.,           1.,          11.
   3668,          2.5,           1.,          11.
   3669,           3.,           1.,          11.
   3670,          3.5,           1.,          11.
   3671,           4.,           1.,          11.
   3672,          4.5,           1.,          11.
   3673,           5.,           1.,          11.
   3674,          5.5,           1.,          11.
   3675,           6.,           1.,          11.
   3676,          6.5,           1.,          11.
   3677,           7.,           1.,          11.
   3678,          -7.,           1.,         11.5
   3679,         -6.5,           1.,         11.5
   3680,          -6.,           1.,         11.5
   3681,         -5.5,           1.,         11.5
   3682,          -5.,           1.,         11.5
   3683,         -4.5,           1.,         11.5
   3684,          -4.,           1.,         11.5
   3685,         -3.5,           1.,         11.5
   3686,          -3.,           1.,         11.5
   3687,         -2.5,           1.,         11.5
   3688,          -2.,           1.,         11.5
   3689,         -1.5,           1.,         11.5
   3690,          -1.,           1.,         11.5
   3691,         -0.5,           1.,         11.5
   3692,           0.,           1.,         11.5
   3693,          0.5,           1.,         11.5
   3694,           1.,           1.,         11.5
   3695,          1.5,           1.,         11.5
   3696,           2.,           1.,         11.5
   3697,          2.5,           1.,         11.5
   3698,           3.,           1.,         11.5
   3699,          3.5,           1.,         11.5
   3700,           4.,           1.,         11.5
   3701,          4.5,           1.,         11.5
   3702,           5.,           1.,         11.5
   3703,          5.5,           1.,         11.5
   3704,           6.,           1.,         11.5
   3705,          6.5,           1.,         11.5
   3706,           7.,           1.,         11.5
   3707,          -7.,           1.,          12.
   3708,         -6.5,           1.,          12.
   3709,          -6.,           1.,          12.
   3710,         -5.5,           1.,          12.
   3711,          -5.,           1.,          12.
   3712,         -4.5,           1.,          12.
   3713,          -4.,           1.,          12.
   3714,         -3.5,           1.,          12.
   3715,          -3.,           1.,          12.
   3716,         -2.5,           1.,          12.
   3717,          -2.,           1.,          12.
   3718,         -1.5,           1.,          12.
   3719,          -1.,           1.,          12.
   3720,         -0.5,           1.,          12.
   3721,           0.,           1.,          12.
   3722,          0.5,           1.,          12.
   3723,           1.,           1.,          12.
   3724,          1.5,           1.,          12.
   3725,           2.,           1.,          12.
   3726,          2.5,           1.,          12.
   3727,           3.,           1.,          12.
   3728,          3.5,           1.,          12.
   3729,           4.,           1.,          12.
   3730,          4.5,           1.,          12.
   3731,           5.,           1.,          12.
   3732,          5.5,           1.,          12.
   3733,           6.,           1.,          12.
   3734,          6.5,           1.,          12.
   3735,           7.,           1.,          12.
   3736,          -7.,           1.,         12.5
   3737,         -6.5,           1.,         12.5
   3738,          -6.,           1.,         12.5
   3739,         -5.5,           1.,         12.5
   3740,          -5.,           1.,         12.5
   3741,         -4.5,           1.,         12.5
   3742,          -4.,           1.,         12.5
   3743,         -3.5,           1.,         12.5
   3744,          -3.,           1.,         12.5
   3745,         -2.5,           1.,         12.5
   3746,          -2.,           1.,         12.5
   3747,         -1.5,           1.,         12.5
   3748,          -1.,           1.,         12.5
   3749,         -0.5,           1.,         12.5
   3750,           0.,           1.,         12.5
   3751,          0.5,           1.,         12.5
   3752,           1.,           1.,         12.5
   3753,          1.5,           1.,         12.5
   3754,           2.,           1.,         12.5
   3755,          2.5,           1.,         12.5
   3756,           3.,           1.,         12.5
   3757,          3.5,           1.,         12.5
   3758,           4.,           1.,         12.5
   3759,          4.5,           1.,         12.5
   3760,           5.,           1.,         12.5
   3761,          5.5,           1.,         12.5
   3762,           6.,           1.,         12.5
   3763,          6.5,           1.,         12.5
   3764,           7.,           1.,         12.5
   3765,          -7.,           1.,          13.
   3766,         -6.5,           1.,          13.
   3767,          -6.,           1.,          13.
   3768,         -5.5,           1.,          13.
   3769,          -5.,           1.,          13.
   3770,         -4.5,           1.,          13.
   3771,          -4.,           1.,          13.
   3772,         -3.5,           1.,          13.
   3773,          -3.,           1.,          13.
   3774,         -2.5,           1.,          13.
   3775,          -2.,           1.,          13.
   3776,         -1.5,           1.,          13.
   3777,          -1.,           1.,          13.
   3778,         -0.5,           1.,          13.
   3779,           0.,           1.,          13.
   3780,          0.5,           1.,          13.
   3781,           1.,           1.,          13.
   3782,          1.5,           1.,          13.
   3783,           2.,           1.,          13.
   3784,          2.5,           1.,          13.
   3785,           3.,           1.,          13.
   3786,          3.5,           1.,          13.
   3787,           4.,           1.,          13.
   3788,          4.5,           1.,          13.
   3789,           5.,           1.,          13.
   3790,          5.5,           1.,          13.
   3791,           6.,           1.,          13.
   3792,          6.5,           1.,          13.
   3793,           7.,           1.,          13.
   3794,          -7.,           1.,         13.5
   3795,         -6.5,           1.,         13.5
   3796,          -6.,           1.,         13.5
   3797,         -5.5,           1.,         13.5
   3798,          -5.,           1.,         13.5
   3799,         -4.5,           1.,         13.5
   3800,          -4.,           1.,         13.5
   3801,         -3.5,           1.,         13.5
   3802,          -3.,           1.,         13.5
   3803,         -2.5,           1.,         13.5
   3804,          -2.,           1.,         13.5
   3805,         -1.5,           1.,         13.5
   3806,          -1.,           1.,         13.5
   3807,         -0.5,           1.,         13.5
   3808,           0.,           1.,         13.5
   3809,          0.5,           1.,         13.5
   3810,           1.,           1.,         13.5
   3811,          1.5,           1.,         13.5
   3812,           2.,           1.,         13.5
   3813,          2.5,           1.,         13.5
   3814,           3.,           1.,         13.5
   3815,          3.5,           1.,         13.5
   3816,           4.,           1.,         13.5
   3817,          4.5,           1.,         13.5
   3818,           5.,           1.,         13.5
   3819,          5.5,           1.,         13.5
   3820,           6.,           1.,         13.5
   3821,          6.5,           1.,         13.5
   3822,           7.,           1.,         13.5
   3823,          -7.,           1.,          14.
   3824,         -6.5,           1.,          14.
   3825,          -6.,           1.,          14.
   3826,         -5.5,           1.,          14.
   3827,          -5.,           1.,          14.
   3828,         -4.5,           1.,          14.
   3829,          -4.,           1.,          14.
   3830,         -3.5,           1.,          14.
   3831,          -3.,           1.,          14.
   3832,         -2.5,           1.,          14.
   3833,          -2.,           1.,          14.
   3834,         -1.5,           1.,          14.
   3835,          -1.,           1.,          14.
   3836,         -0.5,           1.,          14.
   3837,           0.,           1.,          14.
   3838,          0.5,           1.,          14.
   3839,           1.,           1.,          14.
   3840,          1.5,           1.,          14.
   3841,           2.,           1.,          14.
   3842,          2.5,           1.,          14.
   3843,           3.,           1.,          14.
   3844,          3.5,           1.,          14.
   3845,           4.,           1.,          14.
   3846,          4.5,           1.,          14.
   3847,           5.,           1.,          14.
   3848,          5.5,           1.,          14.
   3849,           6.,           1.,          14.
   3850,          6.5,           1.,          14.
   3851,           7.,           1.,          14.
   3852,          -7.,           1.,         14.5
   3853,         -6.5,           1.,         14.5
   3854,          -6.,           1.,         14.5
   3855,         -5.5,           1.,         14.5
   3856,          -5.,           1.,         14.5
   3857,         -4.5,           1.,         14.5
   3858,          -4.,           1.,         14.5
   3859,         -3.5,           1.,         14.5
   3860,          -3.,           1.,         14.5
   3861,         -2.5,           1.,         14.5
   3862,          -2.,           1.,         14.5
   3863,         -1.5,           1.,         14.5
   3864,          -1.,           1.,         14.5
   3865,         -0.5,           1.,         14.5
   3866,           0.,           1.,         14.5
   3867,          0.5,           1.,         14.5
   3868,           1.,           1.,         14.5
   3869,          1.5,           1.,         14.5
   3870,           2.,           1.,         14.5
   3871,          2.5,           1.,         14.5
   3872,           3.,           1.,         14.5
   3873,          3.5,           1.,         14.5
   3874,           4.,           1.,         14.5
   3875,          4.5,           1.,         14.5
   3876,           5.,           1.,         14.5
   3877,          5.5,           1.,         14.5
   3878,           6.,           1.,         14.5
   3879,          6.5,           1.,         14.5
   3880,           7.,           1.,         14.5
   3881,          -7.,           1.,          15.
   3882,         -6.5,           1.,          15.
   3883,          -6.,           1.,          15.
   3884,         -5.5,           1.,          15.
   3885,          -5.,           1.,          15.
   3886,         -4.5,           1.,          15.
   3887,          -4.,           1.,          15.
   3888,         -3.5,           1.,          15.
   3889,          -3.,           1.,          15.
   3890,         -2.5,           1.,          15.
   3891,          -2.,           1.,          15.
   3892,         -1.5,           1.,          15.
   3893,          -1.,           1.,          15.
   3894,         -0.5,           1.,          15.
   3895,           0.,           1.,          15.
   3896,          0.5,           1.,          15.
   3897,           1.,           1.,          15.
   3898,          1.5,           1.,          15.
   3899,           2.,           1.,          15.
   3900,          2.5,           1.,          15.
   3901,           3.,           1.,          15.
   3902,          3.5,           1.,          15.
   3903,           4.,           1.,          15.
   3904,          4.5,           1.,          15.
   3905,           5.,           1.,          15.
   3906,          5.5,           1.,          15.
   3907,           6.,           1.,          15.
   3908,          6.5,           1.,          15.
   3909,           7.,           1.,          15.
   3910,          -7.,           1.,         15.5
   3911,         -6.5,           1.,         15.5
   3912,          -6.,           1.,         15.5
   3913,         -5.5,           1.,         15.5
   3914,          -5.,           1.,         15.5
   3915,         -4.5,           1.,         15.5
   3916,          -4.,           1.,         15.5
   3917,         -3.5,           1.,         15.5
   3918,          -3.,           1.,         15.5
   3919,         -2.5,           1.,         15.5
   3920,          -2.,           1.,         15.5
   3921,         -1.5,           1.,         15.5
   3922,          -1.,           1.,         15.5
   3923,         -0.5,           1.,         15.5
   3924,           0.,           1.,         15.5
   3925,          0.5,           1.,         15.5
   3926,           1.,           1.,         15.5
   3927,          1.5,           1.,         15.5
   3928,           2.,           1.,         15.5
   3929,          2.5,           1.,         15.5
   3930,           3.,           1.,         15.5
   3931,          3.5,           1.,         15.5
   3932,           4.,           1.,         15.5
   3933,          4.5,           1.,         15.5
   3934,           5.,           1.,         15.5
   3935,          5.5,           1.,         15.5
   3936,           6.,           1.,         15.5
   3937,          6.5,           1.,         15.5
   3938,           7.,           1.,         15.5
   3939,          -7.,           1.,          16.
   3940,         -6.5,           1.,          16.
   3941,          -6.,           1.,          16.
   3942,         -5.5,           1.,          16.
   3943,          -5.,           1.,          16.
   3944,         -4.5,           1.,          16.
   3945,          -4.,           1.,          16.
   3946,         -3.5,           1.,          16.
   3947,          -3.,           1.,          16.
   3948,         -2.5,           1.,          16.
   3949,          -2.,           1.,          16.
   3950,         -1.5,           1.,          16.
   3951,          -1.,           1.,          16.
   3952,         -0.5,           1.,          16.
   3953,           0.,           1.,          16.
   3954,          0.5,           1.,          16.
   3955,           1.,           1.,          16.
   3956,          1.5,           1.,          16.
   3957,           2.,           1.,          16.
   3958,          2.5,           1.,          16.
   3959,           3.,           1.,          16.
   3960,          3.5,           1.,          16.
   3961,           4.,           1.,          16.
   3962,          4.5,           1.,          16.
   3963,           5.,           1.,          16.
   3964,          5.5,           1.,          16.
   3965,           6.,           1.,          16.
   3966,          6.5,           1.,          16.
   3967,           7.,           1.,          16.
   3968,  -6.61818171,           1.,  0.962212324
   3969,   7.89047241,           1.,   2.43746781
   3970,  -7.70136356,           1.,   1.03730106
   3971,  -5.57324743,           1.,   1.12080479
   3972,  -4.62498951,           1.,  0.978572428
   3973,   -3.3877728,           1.,   1.01729417
   3974,  -2.46932435,           1.,   1.13675988
   3975,  -1.42463374,           1.,  0.964523852
   3976, -0.341211677,           1.,   1.00809944
   3977,  0.668547451,           1.,   1.03895867
   3978,   1.81920505,           1.,   1.08651793
   3979,   2.81475925,           1.,  0.992671371
   3980,   3.85375047,           1.,  0.983120978
   3981,   4.97732639,           1.,   1.16365051
   3982,   5.98186016,           1.,   1.11112905
   3983,   6.93442822,           1.,   1.15345204
   3984,   7.89582014,           1.,   1.20078659
   3985,  -7.86774158,           1.,   2.05084753
   3986,  -7.83836651,           1.,   2.97587299
   3987,  -7.96743393,           1.,   3.89565086
   3988,  -8.03316402,           1.,   5.13424826
   3989,  -8.01168537,           1.,   6.17382574
   3990,  -7.98377275,           1.,   7.18455505
   3991,  -7.90689421,           1.,   8.33893299
   3992,   -7.9940033,           1.,    9.3381691
   3993,  -8.03526878,           1.,   10.4250164
   3994,  -7.86203241,           1.,   11.4696608
   3995,  -7.98236847,           1.,   12.3880577
   3996,  -8.02211857,           1.,   13.6251879
   3997,  -7.87984705,           1.,   14.5733576
   3998,  -8.03772736,           1.,   15.6179934
   3999,   7.79560995,           1.,   16.8884373
   4000,   6.59399176,           1.,   17.0446548
   4001,   5.49497032,           1.,   16.8905258
   4002,   4.49248362,           1.,   16.9075985
   4003,   3.43815064,           1.,   16.8905067
   4004,   2.41457105,           1.,   16.9911537
   4005,   1.45798314,           1.,   16.8969803
   4006,  0.349581152,           1.,   16.9992199
   4007, -0.566483974,           1.,   16.8642902
   4008,  -2.00486779,           1.,   16.8673038
   4009,  -2.99646235,           1.,   16.8740692
   4010,  -3.98931026,           1.,   16.8987064
   4011,   -5.0414772,           1.,   16.8782959
   4012,  -5.99973822,           1.,   16.8553581
   4013,  -6.94317245,           1.,   16.8742619
   4014,  -7.96174097,           1.,   16.7020378
   4015,   7.82518053,           1.,   15.9483318
   4016,   7.84632206,           1.,    15.046051
   4017,   8.00544643,           1.,    14.121315
   4018,   7.96770573,           1.,   12.9107208
   4019,   7.85546398,           1.,   11.9844456
   4020,   7.95658636,           1.,   10.9151564
   4021,   7.96421623,           1.,   9.67096615
   4022,   7.99157381,           1.,   8.65863228
   4023,      8.03827,           1.,   7.57617235
   4024,   7.86544895,           1.,   6.52779198
   4025,   7.97688627,           1.,   5.60042763
   4026,   8.02678299,           1.,    4.3648963
   4027,   7.94719648,           1.,    3.3535018
   4028,  -7.38659096,           1.,   16.9713058
   4029,   6.47684765,           1.,   1.13726151
   4030,  -6.48085785,           1.,   16.8587112
   4031,    7.8667779,           1.,   12.4562387
   4032,   3.32808065,           1.,  0.989015639
   4033,   7.87445402,           1.,     6.058815
   4034,  -8.02110767,           1.,   5.66368818
   4035,  -3.49164701,           1.,   16.8798752
   4036,   2.65270996,           1.,  0.512361646
   4037,   4.18367958,           1.,   0.45541957
   4038,   5.51904917,           1.,  0.400230736
   4039,   6.01136923,           1.,  0.375031203
   4040,   6.49511814,           1.,   0.38638714
   4041,   6.98858261,           1.,  0.415299952
   4042,   7.49326277,           1.,  0.473755628
   4043,   1.48778534,           1.,  0.645370662
   4044,  0.338280737,           1.,  0.531781971
   4045, -0.676738024,           1.,  0.500184655
   4046,    -2.034091,           1.,  0.361862093
   4047,  -1.99044466,           1.,   1.10102367
   4048,   -3.0879519,           1.,  0.519978285
   4049,  -2.93196177,           1.,   1.12413669
   4050,   -8.5420866,           1.,    1.5952729
   4051,  -8.40893841,           1.,  0.561505973
   4052,  -4.83951902,           1.,  0.494309932
   4053,  -3.99139619,           1.,  0.266604483
   4054,  -7.96955347,           1.,   1.60918152
   4055,  -8.57875061,           1.,   3.00663733
   4056,  -7.84652138,           1.,   2.50828218
   4057,  -8.56418037,           1.,   4.13932133
   4058,  -7.85972357,           1.,    3.4419167
   4059,  -7.89827394,           1.,   10.9902658
   4060,  -7.87490273,           1.,   11.9330988
   4061,   -8.5064764,           1.,   13.8398247
   4062,  -8.73374748,           1.,   12.9915066
   4063,  -8.63232613,           1.,   10.5811768
   4064,  -8.49956226,           1.,   9.67612076
   4065,  -8.45814991,           1.,   8.63794231
   4066,  -8.46423531,           1.,   7.37290955
   4067,  -8.50687218,           1.,   5.83176279
   4068,  -8.60064125,           1.,   14.9797878
   4069,  -8.48878956,           1.,   16.3477249
   4070,  -6.94748592,           1.,   17.6069088
   4071,  -7.40183163,           1.,   17.5466709
   4072,  -8.43778419,           1.,   17.4094944
   4073,  -2.49873567,           1.,   17.6254501
   4074,  -3.96629143,           1.,   17.6397476
   4075,  -1.50522768,           1.,   17.6132355
   4076, -0.413324714,           1.,    17.454916
   4077,  0.633875549,           1.,    17.550045
   4078,   2.06181812,           1.,   17.5067329
   4079,   1.93425846,           1.,   16.8882561
   4080,   3.01583314,           1.,   17.6142025
   4081,   2.96312666,           1.,   16.8870583
   4082,   8.56303787,           1.,    15.989521
   4083,   8.45266438,           1.,   16.9736748
   4084,   5.00168228,           1.,   17.6411495
   4085,   4.03903866,           1.,   17.6273918
   4086,   7.81373882,           1.,    16.306509
   4087,   8.43384647,           1.,   14.8934298
   4088,   8.55883789,           1.,   15.4821682
   4089,   7.82873011,           1.,   15.5039911
   4090,   8.56513786,           1.,   13.8330641
   4091,   8.49036217,           1.,    14.334981
   4092,   7.93523073,           1.,   14.6198053
   4093,   7.90186024,           1.,   7.01075506
   4094,    8.4738636,           1.,   5.90066528
   4095,   8.72874355,           1.,   5.00439119
   4096,   8.50957298,           1.,   4.17302656
   4097,   8.58959007,           1.,   2.51122403
   4098,    8.5265522,           1.,   1.58770669
   4099,   8.47148991,           1.,   0.53763175
   4100,  -4.92646027,           1.,   17.4984627
   4101,  -5.49769783,           1.,   17.5954399
   4102,  -5.99641562,           1.,   17.6136227
   4103,  -6.48090506,           1.,    17.618063
   4104,   4.97451544,           1.,  0.536018074
   4105,   8.63846397,           1.,   6.96528769
   4106,   8.49990654,           1.,   8.32329369
   4107,   8.46898174,           1.,   9.33791256
   4108,   8.39181137,           1.,   10.4655495
   4109,   8.60994911,           1.,   11.5287743
   4110,  -7.34762812,           1.,  0.510729492
   4111,  -6.45626879,           1.,  0.379051387
   4112,   7.29806471,           1.,   1.17127383
   4113,  -8.47990608,           1.,   12.0872278
   4114,   7.35540771,           1.,   17.4795094
   4115,   6.43664312,           1.,   17.6351204
   4116,   2.31214619,           1.,   1.01506627
   4117,  -3.99625945,           1.,  0.873704076
   4118,  -6.05159664,           1.,   1.09987652
   4119,   -7.1620326,           1.,   1.00455678
   4120,  -7.99967146,           1.,   6.67410421
   4121,  -8.12657356,           1.,   12.9964161
   4122,  -7.90049171,           1.,   15.0518017
   4123,  -7.99508238,           1.,   16.1620998
   4124,  -2.50052738,           1.,   16.8711414
   4125,    3.9222343,           1.,   17.0086613
   4126,   6.00257301,           1.,   16.9163036
   4127,   7.87539768,           1.,   11.4939833
   4128,   8.12267876,           1.,   4.99548531
   4129,   7.87197971,           1.,   2.92048097
   4130,   8.01587963,           1.,   1.84664822
   4131,   7.89568281,           1.,   17.4422073
   4132,   6.86573315,           1.,   17.5469379
   4133,   5.96991634,           1.,   17.6464729
   4134,   5.48997307,           1.,   17.6416912
   4135,   4.51923704,           1.,   17.6456375
   4136,   3.55752182,           1.,   17.5134201
   4137,    2.5416131,           1.,   17.6115952
   4138,   1.52376652,           1.,      17.6159
   4139,   1.05813587,           1.,   17.6254253
   4140,  0.147963658,           1.,   17.4985218
   4141,  -0.99972266,           1.,   17.5849171
   4142,  -2.00201726,           1.,    17.621418
   4143,  -2.99401236,           1.,   17.6295204
   4144,  -3.48585844,           1.,   17.6351662
   4145,  -4.44184971,           1.,   17.6180859
   4146,  -7.86108351,           1.,   17.3222828
   4147,  -8.32042789,           1.,   1.13711345
   4148,  -8.60451889,           1.,   2.05094838
   4149,  -8.60653687,           1.,   2.51642871
   4150,  -8.46081257,           1.,   3.59405661
   4151,  -8.72653008,           1.,    4.4924798
   4152,  -8.51726151,           1.,   5.32105398
   4153,  -8.49991131,           1.,   6.33913612
   4154,  -8.48563766,           1.,   6.84435749
   4155,  -8.35788345,           1.,   8.00419712
   4156,  -8.48060131,           1.,   9.16540432
   4157,  -8.54977608,           1.,   10.1526852
   4158,  -8.63822556,           1.,   11.0317364
   4159,  -8.60404587,           1.,   11.5123138
   4160,  -8.58008099,           1.,   12.6387892
   4161,  -8.46062565,           1.,    14.404624
   4162,  -8.62067127,           1.,   15.4553576
   4163,  -8.54734039,           1.,   15.8755713
   4164,  -8.45694447,           1.,   16.8635635
   4165,  -7.86316729,           1.,  0.542395771
   4166,  -6.87575388,           1.,  0.452373505
   4167,  -5.97751713,           1.,  0.399820089
   4168,  -5.40395403,           1.,  0.540089786
   4169,  -3.63889909,           1.,  0.420024425
   4170,    -2.512573,           1.,  0.395316601
   4171,   -1.5815624,           1.,  0.369001508
   4172,  -1.15262306,           1.,  0.450613171
   4173, -0.169704303,           1.,  0.514958501
   4174,   0.86220181,           1.,  0.552243769
   4175,   2.12664342,           1.,  0.539433181
   4176,   3.16533303,           1.,  0.506898224
   4177,   3.67842102,           1.,  0.498326629
   4178,   4.53369904,           1.,  0.318448186
   4179,   7.97664356,           1.,  0.542551637
   4180,   8.45888519,           1.,   1.08961833
   4181,   8.60728359,           1.,    2.0241363
   4182,   8.45032883,           1.,   3.08827353
   4183,   8.48804855,           1.,   3.65205646
   4184,   8.58244228,           1.,   4.66496658
   4185,   8.60203552,           1.,   6.48349953
   4186,   8.63270378,           1.,   7.41772747
   4187,     8.550313,           1.,   7.84787369
   4188,   8.48522854,           1.,    8.8302269
   4189,   8.45627499,           1.,   9.85904789
   4190,   8.57782841,           1.,   11.0303583
   4191,   8.58462906,           1.,    12.024847
   4192,    8.4618187,           1.,    12.612772
   4193,   8.72194672,           1.,   13.4953938
   4194,   8.51719379,           1.,   16.4951134
   4195,   5.39286947,           1.,   1.00923598
   4196,   7.99873114,           1.,    3.8371799
   4197,  -7.95722961,           1.,   14.1333981
   4198,  -5.13305902,           1.,   1.04332423
   4199,  -5.52053738,           1.,   16.8550892
   4200,   4.99731588,           1.,   16.8890896
   4201,    4.4859848,           1.,  0.921600282
   4202,  -8.12118149,           1.,   4.50147152
   4203,   8.11248779,           1.,   13.5046644
   4204,  -4.55398607,           1.,   16.9958153
   4205,  -8.31181145,           1.,   10.6689768
   4206,  -7.90826416,           1.,   7.66806793
   4207,  -7.97634888,           1.,   8.82846546
   4208,   -8.0060606,           1.,   9.85726833
   4209,   7.98324919,           1.,   9.16696262
   4210,   7.77208424,           1.,   10.5140495
   4211,   8.26582432,           1.,   11.1415796
   4212,  0.898449898,           1.,   17.0371475
   4213, -0.138576031,           1.,   16.9456844
   4214,  -1.51255584,           1.,   16.8615589
   4215, -0.857917607,           1.,  0.994718552
   4216,  0.166195288,           1.,    1.0171448
   4217,   1.49146688,           1.,   1.24531353
   4218,   8.00600243,           1.,   8.14235497
   4219,   8.17817688,           1.,   12.3675957
   4220,   8.18057346,           1.,   2.84069085
   4221,   6.34566355,           1.,   17.3230057
   4222,  -8.24814796,           1.,   15.0180855
   4223,  -6.01734257,           1.,  0.752438784
   4224,   5.95524645,           1.,   17.2796383
   4225,   2.98677158,           1.,   17.2477856
   4226,     8.190341,           1.,   6.14830446
   4227,  -2.84148335,           1.,  0.807414889
   4228,  -8.19170666,           1.,   11.8416853
   4229,   7.17437029,           1.,   16.9843502
   4230,  -6.46911383,           1.,   17.2341557
   4231,    8.1749773,           1.,   15.9681559
   4232,  -8.22064304,           1.,   2.51780677
   4233,   6.95594835,           1.,  0.800990403
   4234,   1.83829391,           1.,   17.2127666
   4235,   8.31549168,           1.,   7.33166075
   4236,  -1.66900814,           1.,  0.687740803
   4237,   7.42209911,           1.,  0.908430874
   4238,   8.07811546,           1.,   16.4270401
   4239,   8.18891811,           1.,   15.5186739
   4240,   6.48695326,           1.,  0.767447889
   4241,   8.45725155,           1.,   17.4630947
   4242,   1.15491271,           1.,   1.10377347
   4243,   -7.7577548,           1.,   8.00159836
   4244,   -1.0316062,           1.,   16.8530884
   4245,   7.91398382,           1.,   10.1611662
   4246,   5.48661375,           1.,   17.2676716
   4247,   5.00314999,           1.,   17.2673531
   4248,  -7.24111795,           1.,   17.2432346
   4249,  -6.90208864,           1.,   17.2397213
   4250,  -6.00067091,           1.,   17.2332211
   4251,  -8.23916245,           1.,   1.75508296
   4252,  -8.23323917,           1.,   2.09264565
   4253,  -8.20787239,           1.,   2.96320748
   4254,   6.02294779,           1.,  0.748679519
   4255,    5.6240654,           1.,  0.714084983
   4256,   4.53483343,           1.,    17.276823
   4257,   4.14850187,           1.,   17.3072262
   4258,  -8.17100334,           1.,   3.34844017
   4259,   3.33753848,           1.,   17.2144089
   4260,  -8.58339024,           1.,   4.83119249
   4261,  -8.23577213,           1.,   11.4677773
   4262,   1.13745117,           1.,   17.3067417
   4263, -0.658863366,           1.,   17.1772079
   4264,   -1.0472939,           1.,    17.220787
   4265,  -1.51573825,           1.,   17.2361202
   4266,  -2.00488687,           1.,   17.2431965
   4267,  -2.49935818,           1.,   17.2477722
   4268,  -2.99341393,           1.,   17.2520638
   4269,  -3.48126221,           1.,   17.2577591
   4270,  -3.94566035,           1.,   17.2677383
   4271,  -4.33010864,           1.,   17.2965393
   4272,  -5.15153837,           1.,   17.1975842
   4273,  -5.53879452,           1.,   17.2261086
   4274,  -8.58333778,           1.,   13.3349609
   4275,  -8.19144058,           1.,   14.6504469
   4276,  -8.30537605,           1.,   15.3767538
   4277,  -2.46782899,           1.,  0.763178289
   4278,  -4.33478642,           1.,   0.41710037
   4279,  -5.65002584,           1.,   0.80930835
   4280,  -6.37706757,           1.,  0.694701135
   4281,  -8.26444721,           1.,   11.0373363
   4282,  -2.03814483,           1.,   0.73499459
   4283,   8.26696777,           1.,   6.96219873
   4284,   2.63784194,           1.,   17.2858334
   4285,   1.49017203,           1.,   17.2558289
   4286,   8.23728848,           1.,   6.52848005
   4287,   8.29178333,           1.,   2.09824634
   4288,   8.23726177,           1.,   2.47182727
   4289,   8.15237331,           1.,   15.1372337
   4290,   8.56809235,           1.,   13.1478786
   4291,   8.22116089,           1.,    11.981245
   4292,   8.23941994,           1.,    11.533576
   4293,   8.57458305,           1.,   5.35429764
   4294,         -7.5,          1.5,          1.5
   4295,          7.5,          1.5,          1.5
   4296,          7.5,          1.5,         16.5
   4297,         -7.5,          1.5,         16.5
   4298,           9.,          1.5,          18.
   4299,          -9.,          1.5,          18.
   4300,          -9.,          1.5,           0.
   4301,           9.,          1.5,           0.
   4302,          -7.,          1.5,          1.5
   4303,         -6.5,          1.5,          1.5
   4304,          -6.,          1.5,          1.5
   4305,         -5.5,          1.5,          1.5
   4306,          -5.,          1.5,          1.5
   4307,         -4.5,          1.5,          1.5
   4308,          -4.,          1.5,          1.5
   4309,         -3.5,          1.5,          1.5
   4310,          -3.,          1.5,          1.5
   4311,         -2.5,          1.5,          1.5
   4312,          -2.,          1.5,          1.5
   4313,         -1.5,          1.5,          1.5
   4314,          -1.,          1.5,          1.5
   4315,         -0.5,          1.5,          1.5
   4316,           0.,          1.5,          1.5
   4317,          0.5,          1.5,          1.5
   4318,           1.,          1.5,          1.5
   4319,          1.5,          1.5,          1.5
   4320,           2.,          1.5,          1.5
   4321,          2.5,          1.5,          1.5
   4322,           3.,          1.5,          1.5
   4323,          3.5,          1.5,          1.5
   4324,           4.,          1.5,          1.5
   4325,          4.5,          1.5,          1.5
   4326,           5.,          1.5,          1.5
   4327,          5.5,          1.5,          1.5
   4328,           6.,          1.5,          1.5
   4329,          6.5,          1.5,          1.5
   4330,           7.,          1.5,          1.5
   4331,          7.5,          1.5,           2.
   4332,          7.5,          1.5,          2.5
   4333,          7.5,          1.5,           3.
   4334,          7.5,          1.5,          3.5
   4335,          7.5,          1.5,           4.
   4336,          7.5,          1.5,          4.5
   4337,          7.5,          1.5,           5.
   4338,          7.5,          1.5,          5.5
   4339,          7.5,          1.5,           6.
   4340,          7.5,          1.5,          6.5
   4341,          7.5,          1.5,           7.
   4342,          7.5,          1.5,          7.5
   4343,          7.5,          1.5,           8.
   4344,          7.5,          1.5,          8.5
   4345,          7.5,          1.5,           9.
   4346,          7.5,          1.5,          9.5
   4347,          7.5,          1.5,          10.
   4348,          7.5,          1.5,         10.5
   4349,          7.5,          1.5,          11.
   4350,          7.5,          1.5,         11.5
   4351,          7.5,          1.5,          12.
   4352,          7.5,          1.5,         12.5
   4353,          7.5,          1.5,          13.
   4354,          7.5,          1.5,         13.5
   4355,          7.5,          1.5,          14.
   4356,          7.5,          1.5,         14.5
   4357,          7.5,          1.5,          15.
   4358,          7.5,          1.5,         15.5
   4359,          7.5,          1.5,          16.
   4360,           7.,          1.5,         16.5
   4361,          6.5,          1.5,         16.5
   4362,           6.,          1.5,         16.5
   4363,          5.5,          1.5,         16.5
   4364,           5.,          1.5,         16.5
   4365,          4.5,          1.5,         16.5
   4366,           4.,          1.5,         16.5
   4367,          3.5,          1.5,         16.5
   4368,           3.,          1.5,         16.5
   4369,          2.5,          1.5,         16.5
   4370,           2.,          1.5,         16.5
   4371,          1.5,          1.5,         16.5
   4372,           1.,          1.5,         16.5
   4373,          0.5,          1.5,         16.5
   4374,           0.,          1.5,         16.5
   4375,         -0.5,          1.5,         16.5
   4376,          -1.,          1.5,         16.5
   4377,         -1.5,          1.5,         16.5
   4378,          -2.,          1.5,         16.5
   4379,         -2.5,          1.5,         16.5
   4380,          -3.,          1.5,         16.5
   4381,         -3.5,          1.5,         16.5
   4382,          -4.,          1.5,         16.5
   4383,         -4.5,          1.5,         16.5
   4384,          -5.,          1.5,         16.5
   4385,         -5.5,          1.5,         16.5
   4386,          -6.,          1.5,         16.5
   4387,         -6.5,          1.5,         16.5
   4388,          -7.,          1.5,         16.5
   4389,         -7.5,          1.5,          16.
   4390,         -7.5,          1.5,         15.5
   4391,         -7.5,          1.5,          15.
   4392,         -7.5,          1.5,         14.5
   4393,         -7.5,          1.5,          14.
   4394,         -7.5,          1.5,         13.5
   4395,         -7.5,          1.5,          13.
   4396,         -7.5,          1.5,         12.5
   4397,         -7.5,          1.5,          12.
   4398,         -7.5,          1.5,         11.5
   4399,         -7.5,          1.5,          11.
   4400,         -7.5,          1.5,         10.5
   4401,         -7.5,          1.5,          10.
   4402,         -7.5,          1.5,          9.5
   4403,         -7.5,          1.5,           9.
   4404,         -7.5,          1.5,          8.5
   4405,         -7.5,          1.5,           8.
   4406,         -7.5,          1.5,          7.5
   4407,         -7.5,          1.5,           7.
   4408,         -7.5,          1.5,          6.5
   4409,         -7.5,          1.5,           6.
   4410,         -7.5,          1.5,          5.5
   4411,         -7.5,          1.5,           5.
   4412,         -7.5,          1.5,          4.5
   4413,         -7.5,          1.5,           4.
   4414,         -7.5,          1.5,          3.5
   4415,         -7.5,          1.5,           3.
   4416,         -7.5,          1.5,          2.5
   4417,         -7.5,          1.5,           2.
   4418,          8.5,          1.5,          18.
   4419,           8.,          1.5,          18.
   4420,          7.5,          1.5,          18.
   4421,           7.,          1.5,          18.
   4422,          6.5,          1.5,          18.
   4423,           6.,          1.5,          18.
   4424,          5.5,          1.5,          18.
   4425,           5.,          1.5,          18.
   4426,          4.5,          1.5,          18.
   4427,           4.,          1.5,          18.
   4428,          3.5,          1.5,          18.
   4429,           3.,          1.5,          18.
   4430,          2.5,          1.5,          18.
   4431,           2.,          1.5,          18.
   4432,          1.5,          1.5,          18.
   4433,           1.,          1.5,          18.
   4434,          0.5,          1.5,          18.
   4435,           0.,          1.5,          18.
   4436,         -0.5,          1.5,          18.
   4437,          -1.,          1.5,          18.
   4438,         -1.5,          1.5,          18.
   4439,          -2.,          1.5,          18.
   4440,         -2.5,          1.5,          18.
   4441,          -3.,          1.5,          18.
   4442,         -3.5,          1.5,          18.
   4443,          -4.,          1.5,          18.
   4444,         -4.5,          1.5,          18.
   4445,          -5.,          1.5,          18.
   4446,         -5.5,          1.5,          18.
   4447,          -6.,          1.5,          18.
   4448,         -6.5,          1.5,          18.
   4449,          -7.,          1.5,          18.
   4450,         -7.5,          1.5,          18.
   4451,          -8.,          1.5,          18.
   4452,         -8.5,          1.5,          18.
   4453,          -9.,          1.5,         17.5
   4454,          -9.,          1.5,          17.
   4455,          -9.,          1.5,         16.5
   4456,          -9.,          1.5,          16.
   4457,          -9.,          1.5,         15.5
   4458,          -9.,          1.5,          15.
   4459,          -9.,          1.5,         14.5
   4460,          -9.,          1.5,          14.
   4461,          -9.,          1.5,         13.5
   4462,          -9.,          1.5,          13.
   4463,          -9.,          1.5,         12.5
   4464,          -9.,          1.5,          12.
   4465,          -9.,          1.5,         11.5
   4466,          -9.,          1.5,          11.
   4467,          -9.,          1.5,         10.5
   4468,          -9.,          1.5,          10.
   4469,          -9.,          1.5,          9.5
   4470,          -9.,          1.5,           9.
   4471,          -9.,          1.5,          8.5
   4472,          -9.,          1.5,           8.
   4473,          -9.,          1.5,          7.5
   4474,          -9.,          1.5,           7.
   4475,          -9.,          1.5,          6.5
   4476,          -9.,          1.5,           6.
   4477,          -9.,          1.5,          5.5
   4478,          -9.,          1.5,           5.
   4479,          -9.,          1.5,          4.5
   4480,          -9.,          1.5,           4.
   4481,          -9.,          1.5,          3.5
   4482,          -9.,          1.5,           3.
   4483,          -9.,          1.5,          2.5
   4484,          -9.,          1.5,           2.
   4485,          -9.,          1.5,          1.5
   4486,          -9.,          1.5,           1.
   4487,          -9.,          1.5,          0.5
   4488,         -8.5,          1.5,           0.
   4489,          -8.,          1.5,           0.
   4490,         -7.5,          1.5,           0.
   4491,          -7.,          1.5,           0.
   4492,         -6.5,          1.5,           0.
   4493,          -6.,          1.5,           0.
   4494,         -5.5,          1.5,           0.
   4495,          -5.,          1.5,           0.
   4496,         -4.5,          1.5,           0.
   4497,          -4.,          1.5,           0.
   4498,         -3.5,          1.5,           0.
   4499,          -3.,          1.5,           0.
   4500,         -2.5,          1.5,           0.
   4501,          -2.,          1.5,           0.
   4502,         -1.5,          1.5,           0.
   4503,          -1.,          1.5,           0.
   4504,         -0.5,          1.5,           0.
   4505,           0.,          1.5,           0.
   4506,          0.5,          1.5,           0.
   4507,           1.,          1.5,           0.
   4508,          1.5,          1.5,           0.
   4509,           2.,          1.5,           0.
   4510,          2.5,          1.5,           0.
   4511,           3.,          1.5,           0.
   4512,          3.5,          1.5,           0.
   4513,           4.,          1.5,           0.
   4514,          4.5,          1.5,           0.
   4515,           5.,          1.5,           0.
   4516,          5.5,          1.5,           0.
   4517,           6.,          1.5,           0.
   4518,          6.5,          1.5,           0.
   4519,           7.,          1.5,           0.
   4520,          7.5,          1.5,           0.
   4521,           8.,          1.5,           0.
   4522,          8.5,          1.5,           0.
   4523,           9.,          1.5,          0.5
   4524,           9.,          1.5,           1.
   4525,           9.,          1.5,          1.5
   4526,           9.,          1.5,           2.
   4527,           9.,          1.5,          2.5
   4528,           9.,          1.5,           3.
   4529,           9.,          1.5,          3.5
   4530,           9.,          1.5,           4.
   4531,           9.,          1.5,          4.5
   4532,           9.,          1.5,           5.
   4533,           9.,          1.5,          5.5
   4534,           9.,          1.5,           6.
   4535,           9.,          1.5,          6.5
   4536,           9.,          1.5,           7.
   4537,           9.,          1.5,          7.5
   4538,           9.,          1.5,           8.
   4539,           9.,          1.5,          8.5
   4540,           9.,          1.5,           9.
   4541,           9.,          1.5,          9.5
   4542,           9.,          1.5,          10.
   4543,           9.,          1.5,         10.5
   4544,           9.,          1.5,          11.
   4545,           9.,          1.5,         11.5
   4546,           9.,          1.5,          12.
   4547,           9.,          1.5,         12.5
   4548,           9.,          1.5,          13.
   4549,           9.,          1.5,         13.5
   4550,           9.,          1.5,          14.
   4551,           9.,          1.5,         14.5
   4552,           9.,          1.5,          15.
   4553,           9.,          1.5,         15.5
   4554,           9.,          1.5,          16.
   4555,           9.,          1.5,         16.5
   4556,           9.,          1.5,          17.
   4557,           9.,          1.5,         17.5
   4558,          -7.,          1.5,           2.
   4559,         -6.5,          1.5,           2.
   4560,          -6.,          1.5,           2.
   4561,         -5.5,          1.5,           2.
   4562,          -5.,          1.5,           2.
   4563,         -4.5,          1.5,           2.
   4564,          -4.,          1.5,           2.
   4565,         -3.5,          1.5,           2.
   4566,          -3.,          1.5,           2.
   4567,         -2.5,          1.5,           2.
   4568,          -2.,          1.5,           2.
   4569,         -1.5,          1.5,           2.
   4570,          -1.,          1.5,           2.
   4571,         -0.5,          1.5,           2.
   4572,           0.,          1.5,           2.
   4573,          0.5,          1.5,           2.
   4574,           1.,          1.5,           2.
   4575,          1.5,          1.5,           2.
   4576,           2.,          1.5,           2.
   4577,          2.5,          1.5,           2.
   4578,           3.,          1.5,           2.
   4579,          3.5,          1.5,           2.
   4580,           4.,          1.5,           2.
   4581,          4.5,          1.5,           2.
   4582,           5.,          1.5,           2.
   4583,          5.5,          1.5,           2.
   4584,           6.,          1.5,           2.
   4585,          6.5,          1.5,           2.
   4586,           7.,          1.5,           2.
   4587,          -7.,          1.5,          2.5
   4588,         -6.5,          1.5,          2.5
   4589,          -6.,          1.5,          2.5
   4590,         -5.5,          1.5,          2.5
   4591,          -5.,          1.5,          2.5
   4592,         -4.5,          1.5,          2.5
   4593,          -4.,          1.5,          2.5
   4594,         -3.5,          1.5,          2.5
   4595,          -3.,          1.5,          2.5
   4596,         -2.5,          1.5,          2.5
   4597,          -2.,          1.5,          2.5
   4598,         -1.5,          1.5,          2.5
   4599,          -1.,          1.5,          2.5
   4600,         -0.5,          1.5,          2.5
   4601,           0.,          1.5,          2.5
   4602,          0.5,          1.5,          2.5
   4603,           1.,          1.5,          2.5
   4604,          1.5,          1.5,          2.5
   4605,           2.,          1.5,          2.5
   4606,          2.5,          1.5,          2.5
   4607,           3.,          1.5,          2.5
   4608,          3.5,          1.5,          2.5
   4609,           4.,          1.5,          2.5
   4610,          4.5,          1.5,          2.5
   4611,           5.,          1.5,          2.5
   4612,          5.5,          1.5,          2.5
   4613,           6.,          1.5,          2.5
   4614,          6.5,          1.5,          2.5
   4615,           7.,          1.5,          2.5
   4616,          -7.,          1.5,           3.
   4617,         -6.5,          1.5,           3.
   4618,          -6.,          1.5,           3.
   4619,         -5.5,          1.5,           3.
   4620,          -5.,          1.5,           3.
   4621,         -4.5,          1.5,           3.
   4622,          -4.,          1.5,           3.
   4623,         -3.5,          1.5,           3.
   4624,          -3.,          1.5,           3.
   4625,         -2.5,          1.5,           3.
   4626,          -2.,          1.5,           3.
   4627,         -1.5,          1.5,           3.
   4628,          -1.,          1.5,           3.
   4629,         -0.5,          1.5,           3.
   4630,           0.,          1.5,           3.
   4631,          0.5,          1.5,           3.
   4632,           1.,          1.5,           3.
   4633,          1.5,          1.5,           3.
   4634,           2.,          1.5,           3.
   4635,          2.5,          1.5,           3.
   4636,           3.,          1.5,           3.
   4637,          3.5,          1.5,           3.
   4638,           4.,          1.5,           3.
   4639,          4.5,          1.5,           3.
   4640,           5.,          1.5,           3.
   4641,          5.5,          1.5,           3.
   4642,           6.,          1.5,           3.
   4643,          6.5,          1.5,           3.
   4644,           7.,          1.5,           3.
   4645,          -7.,          1.5,          3.5
   4646,         -6.5,          1.5,          3.5
   4647,          -6.,          1.5,          3.5
   4648,         -5.5,          1.5,          3.5
   4649,          -5.,          1.5,          3.5
   4650,         -4.5,          1.5,          3.5
   4651,          -4.,          1.5,          3.5
   4652,         -3.5,          1.5,          3.5
   4653,          -3.,          1.5,          3.5
   4654,         -2.5,          1.5,          3.5
   4655,          -2.,          1.5,          3.5
   4656,         -1.5,          1.5,          3.5
   4657,          -1.,          1.5,          3.5
   4658,         -0.5,          1.5,          3.5
   4659,           0.,          1.5,          3.5
   4660,          0.5,          1.5,          3.5
   4661,           1.,          1.5,          3.5
   4662,          1.5,          1.5,          3.5
   4663,           2.,          1.5,          3.5
   4664,          2.5,          1.5,          3.5
   4665,           3.,          1.5,          3.5
   4666,          3.5,          1.5,          3.5
   4667,           4.,          1.5,          3.5
   4668,          4.5,          1.5,          3.5
   4669,           5.,          1.5,          3.5
   4670,          5.5,          1.5,          3.5
   4671,           6.,          1.5,          3.5
   4672,          6.5,          1.5,          3.5
   4673,           7.,          1.5,          3.5
   4674,          -7.,          1.5,           4.
   4675,         -6.5,          1.5,           4.
   4676,          -6.,          1.5,           4.
   4677,         -5.5,          1.5,           4.
   4678,          -5.,          1.5,           4.
   4679,         -4.5,          1.5,           4.
   4680,          -4.,          1.5,           4.
   4681,         -3.5,          1.5,           4.
   4682,          -3.,          1.5,           4.
   4683,         -2.5,          1.5,           4.
   4684,          -2.,          1.5,           4.
   4685,         -1.5,          1.5,           4.
   4686,          -1.,          1.5,           4.
   4687,         -0.5,          1.5,           4.
   4688,           0.,          1.5,           4.
   4689,          0.5,          1.5,           4.
   4690,           1.,          1.5,           4.
   4691,          1.5,          1.5,           4.
   4692,           2.,          1.5,           4.
   4693,          2.5,          1.5,           4.
   4694,           3.,          1.5,           4.
   4695,          3.5,          1.5,           4.
   4696,           4.,          1.5,           4.
   4697,          4.5,          1.5,           4.
   4698,           5.,          1.5,           4.
   4699,          5.5,          1.5,           4.
   4700,           6.,          1.5,           4.
   4701,          6.5,          1.5,           4.
   4702,           7.,          1.5,           4.
   4703,          -7.,          1.5,          4.5
   4704,         -6.5,          1.5,          4.5
   4705,          -6.,          1.5,          4.5
   4706,         -5.5,          1.5,          4.5
   4707,          -5.,          1.5,          4.5
   4708,         -4.5,          1.5,          4.5
   4709,          -4.,          1.5,          4.5
   4710,         -3.5,          1.5,          4.5
   4711,          -3.,          1.5,          4.5
   4712,         -2.5,          1.5,          4.5
   4713,          -2.,          1.5,          4.5
   4714,         -1.5,          1.5,          4.5
   4715,          -1.,          1.5,          4.5
   4716,         -0.5,          1.5,          4.5
   4717,           0.,          1.5,          4.5
   4718,          0.5,          1.5,          4.5
   4719,           1.,          1.5,          4.5
   4720,          1.5,          1.5,          4.5
   4721,           2.,          1.5,          4.5
   4722,          2.5,          1.5,          4.5
   4723,           3.,          1.5,          4.5
   4724,          3.5,          1.5,          4.5
   4725,           4.,          1.5,          4.5
   4726,          4.5,          1.5,          4.5
   4727,           5.,          1.5,          4.5
   4728,          5.5,          1.5,          4.5
   4729,           6.,          1.5,          4.5
   4730,          6.5,          1.5,          4.5
   4731,           7.,          1.5,          4.5
   4732,          -7.,          1.5,           5.
   4733,         -6.5,          1.5,           5.
   4734,          -6.,          1.5,           5.
   4735,         -5.5,          1.5,           5.
   4736,          -5.,          1.5,           5.
   4737,         -4.5,          1.5,           5.
   4738,          -4.,          1.5,           5.
   4739,         -3.5,          1.5,           5.
   4740,          -3.,          1.5,           5.
   4741,         -2.5,          1.5,           5.
   4742,          -2.,          1.5,           5.
   4743,         -1.5,          1.5,           5.
   4744,          -1.,          1.5,           5.
   4745,         -0.5,          1.5,           5.
   4746,           0.,          1.5,           5.
   4747,          0.5,          1.5,           5.
   4748,           1.,          1.5,           5.
   4749,          1.5,          1.5,           5.
   4750,           2.,          1.5,           5.
   4751,          2.5,          1.5,           5.
   4752,           3.,          1.5,           5.
   4753,          3.5,          1.5,           5.
   4754,           4.,          1.5,           5.
   4755,          4.5,          1.5,           5.
   4756,           5.,          1.5,           5.
   4757,          5.5,          1.5,           5.
   4758,           6.,          1.5,           5.
   4759,          6.5,          1.5,           5.
   4760,           7.,          1.5,           5.
   4761,          -7.,          1.5,          5.5
   4762,         -6.5,          1.5,          5.5
   4763,          -6.,          1.5,          5.5
   4764,         -5.5,          1.5,          5.5
   4765,          -5.,          1.5,          5.5
   4766,         -4.5,          1.5,          5.5
   4767,          -4.,          1.5,          5.5
   4768,         -3.5,          1.5,          5.5
   4769,          -3.,          1.5,          5.5
   4770,         -2.5,          1.5,          5.5
   4771,          -2.,          1.5,          5.5
   4772,         -1.5,          1.5,          5.5
   4773,          -1.,          1.5,          5.5
   4774,         -0.5,          1.5,          5.5
   4775,           0.,          1.5,          5.5
   4776,          0.5,          1.5,          5.5
   4777,           1.,          1.5,          5.5
   4778,          1.5,          1.5,          5.5
   4779,           2.,          1.5,          5.5
   4780,          2.5,          1.5,          5.5
   4781,           3.,          1.5,          5.5
   4782,          3.5,          1.5,          5.5
   4783,           4.,          1.5,          5.5
   4784,          4.5,          1.5,          5.5
   4785,           5.,          1.5,          5.5
   4786,          5.5,          1.5,          5.5
   4787,           6.,          1.5,          5.5
   4788,          6.5,          1.5,          5.5
   4789,           7.,          1.5,          5.5
   4790,          -7.,          1.5,           6.
   4791,         -6.5,          1.5,           6.
   4792,          -6.,          1.5,           6.
   4793,         -5.5,          1.5,           6.
   4794,          -5.,          1.5,           6.
   4795,         -4.5,          1.5,           6.
   4796,          -4.,          1.5,           6.
   4797,         -3.5,          1.5,           6.
   4798,          -3.,          1.5,           6.
   4799,         -2.5,          1.5,           6.
   4800,          -2.,          1.5,           6.
   4801,         -1.5,          1.5,           6.
   4802,          -1.,          1.5,           6.
   4803,         -0.5,          1.5,           6.
   4804,           0.,          1.5,           6.
   4805,          0.5,          1.5,           6.
   4806,           1.,          1.5,           6.
   4807,          1.5,          1.5,           6.
   4808,           2.,          1.5,           6.
   4809,          2.5,          1.5,           6.
   4810,           3.,          1.5,           6.
   4811,          3.5,          1.5,           6.
   4812,           4.,          1.5,           6.
   4813,          4.5,          1.5,           6.
   4814,           5.,          1.5,           6.
   4815,          5.5,          1.5,           6.
   4816,           6.,          1.5,           6.
   4817,          6.5,          1.5,           6.
   4818,           7.,          1.5,           6.
   4819,          -7.,          1.5,          6.5
   4820,         -6.5,          1.5,          6.5
   4821,          -6.,          1.5,          6.5
   4822,         -5.5,          1.5,          6.5
   4823,          -5.,          1.5,          6.5
   4824,         -4.5,          1.5,          6.5
   4825,          -4.,          1.5,          6.5
   4826,         -3.5,          1.5,          6.5
   4827,          -3.,          1.5,          6.5
   4828,         -2.5,          1.5,          6.5
   4829,          -2.,          1.5,          6.5
   4830,         -1.5,          1.5,          6.5
   4831,          -1.,          1.5,          6.5
   4832,         -0.5,          1.5,          6.5
   4833,           0.,          1.5,          6.5
   4834,          0.5,          1.5,          6.5
   4835,           1.,          1.5,          6.5
   4836,          1.5,          1.5,          6.5
   4837,           2.,          1.5,          6.5
   4838,          2.5,          1.5,          6.5
   4839,           3.,          1.5,          6.5
   4840,          3.5,          1.5,          6.5
   4841,           4.,          1.5,          6.5
   4842,          4.5,          1.5,          6.5
   4843,           5.,          1.5,          6.5
   4844,          5.5,          1.5,          6.5
   4845,           6.,          1.5,          6.5
   4846,          6.5,          1.5,          6.5
   4847,           7.,          1.5,          6.5
   4848,          -7.,          1.5,           7.
   4849,         -6.5,          1.5,           7.
   4850,          -6.,          1.5,           7.
   4851,         -5.5,          1.5,           7.
   4852,          -5.,          1.5,           7.
   4853,         -4.5,          1.5,           7.
   4854,          -4.,          1.5,           7.
   4855,         -3.5,          1.5,           7.
   4856,          -3.,          1.5,           7.
   4857,         -2.5,          1.5,           7.
   4858,          -2.,          1.5,           7.
   4859,         -1.5,          1.5,           7.
   4860,          -1.,          1.5,           7.
   4861,         -0.5,          1.5,           7.
   4862,           0.,          1.5,           7.
   4863,          0.5,          1.5,           7.
   4864,           1.,          1.5,           7.
   4865,          1.5,          1.5,           7.
   4866,           2.,          1.5,           7.
   4867,          2.5,          1.5,           7.
   4868,           3.,          1.5,           7.
   4869,          3.5,          1.5,           7.
   4870,           4.,          1.5,           7.
   4871,          4.5,          1.5,           7.
   4872,           5.,          1.5,           7.
   4873,          5.5,          1.5,           7.
   4874,           6.,          1.5,           7.
   4875,          6.5,          1.5,           7.
   4876,           7.,          1.5,           7.
   4877,          -7.,          1.5,          7.5
   4878,         -6.5,          1.5,          7.5
   4879,          -6.,          1.5,          7.5
   4880,         -5.5,          1.5,          7.5
   4881,          -5.,          1.5,          7.5
   4882,         -4.5,          1.5,          7.5
   4883,          -4.,          1.5,          7.5
   4884,         -3.5,          1.5,          7.5
   4885,          -3.,          1.5,          7.5
   4886,         -2.5,          1.5,          7.5
   4887,          -2.,          1.5,          7.5
   4888,         -1.5,          1.5,          7.5
   4889,          -1.,          1.5,          7.5
   4890,         -0.5,          1.5,          7.5
   4891,           0.,          1.5,          7.5
   4892,          0.5,          1.5,          7.5
   4893,           1.,          1.5,          7.5
   4894,          1.5,          1.5,          7.5
   4895,           2.,          1.5,          7.5
   4896,          2.5,          1.5,          7.5
   4897,           3.,          1.5,          7.5
   4898,          3.5,          1.5,          7.5
   4899,           4.,          1.5,          7.5
   4900,          4.5,          1.5,          7.5
   4901,           5.,          1.5,          7.5
   4902,          5.5,          1.5,          7.5
   4903,           6.,          1.5,          7.5
   4904,          6.5,          1.5,          7.5
   4905,           7.,          1.5,          7.5
   4906,          -7.,          1.5,           8.
   4907,         -6.5,          1.5,           8.
   4908,          -6.,          1.5,           8.
   4909,         -5.5,          1.5,           8.
   4910,          -5.,          1.5,           8.
   4911,         -4.5,          1.5,           8.
   4912,          -4.,          1.5,           8.
   4913,         -3.5,          1.5,           8.
   4914,          -3.,          1.5,           8.
   4915,         -2.5,          1.5,           8.
   4916,          -2.,          1.5,           8.
   4917,         -1.5,          1.5,           8.
   4918,          -1.,          1.5,           8.
   4919,         -0.5,          1.5,           8.
   4920,           0.,          1.5,           8.
   4921,          0.5,          1.5,           8.
   4922,           1.,          1.5,           8.
   4923,          1.5,          1.5,           8.
   4924,           2.,          1.5,           8.
   4925,          2.5,          1.5,           8.
   4926,           3.,          1.5,           8.
   4927,          3.5,          1.5,           8.
   4928,           4.,          1.5,           8.
   4929,          4.5,          1.5,           8.
   4930,           5.,          1.5,           8.
   4931,          5.5,          1.5,           8.
   4932,           6.,          1.5,           8.
   4933,          6.5,          1.5,           8.
   4934,           7.,          1.5,           8.
   4935,          -7.,          1.5,          8.5
   4936,         -6.5,          1.5,          8.5
   4937,          -6.,          1.5,          8.5
   4938,         -5.5,          1.5,          8.5
   4939,          -5.,          1.5,          8.5
   4940,         -4.5,          1.5,          8.5
   4941,          -4.,          1.5,          8.5
   4942,         -3.5,          1.5,          8.5
   4943,          -3.,          1.5,          8.5
   4944,         -2.5,          1.5,          8.5
   4945,          -2.,          1.5,          8.5
   4946,         -1.5,          1.5,          8.5
   4947,          -1.,          1.5,          8.5
   4948,         -0.5,          1.5,          8.5
   4949,           0.,          1.5,          8.5
   4950,          0.5,          1.5,          8.5
   4951,           1.,          1.5,          8.5
   4952,          1.5,          1.5,          8.5
   4953,           2.,          1.5,          8.5
   4954,          2.5,          1.5,          8.5
   4955,           3.,          1.5,          8.5
   4956,          3.5,          1.5,          8.5
   4957,           4.,          1.5,          8.5
   4958,          4.5,          1.5,          8.5
   4959,           5.,          1.5,          8.5
   4960,          5.5,          1.5,          8.5
   4961,           6.,          1.5,          8.5
   4962,          6.5,          1.5,          8.5
   4963,           7.,          1.5,          8.5
   4964,          -7.,          1.5,           9.
   4965,         -6.5,          1.5,           9.
   4966,          -6.,          1.5,           9.
   4967,         -5.5,          1.5,           9.
   4968,          -5.,          1.5,           9.
   4969,         -4.5,          1.5,           9.
   4970,          -4.,          1.5,           9.
   4971,         -3.5,          1.5,           9.
   4972,          -3.,          1.5,           9.
   4973,         -2.5,          1.5,           9.
   4974,          -2.,          1.5,           9.
   4975,         -1.5,          1.5,           9.
   4976,          -1.,          1.5,           9.
   4977,         -0.5,          1.5,           9.
   4978,           0.,          1.5,           9.
   4979,          0.5,          1.5,           9.
   4980,           1.,          1.5,           9.
   4981,          1.5,          1.5,           9.
   4982,           2.,          1.5,           9.
   4983,          2.5,          1.5,           9.
   4984,           3.,          1.5,           9.
   4985,          3.5,          1.5,           9.
   4986,           4.,          1.5,           9.
   4987,          4.5,          1.5,           9.
   4988,           5.,          1.5,           9.
   4989,          5.5,          1.5,           9.
   4990,           6.,          1.5,           9.
   4991,          6.5,          1.5,           9.
   4992,           7.,          1.5,           9.
   4993,          -7.,          1.5,          9.5
   4994,         -6.5,          1.5,          9.5
   4995,          -6.,          1.5,          9.5
   4996,         -5.5,          1.5,          9.5
   4997,          -5.,          1.5,          9.5
   4998,         -4.5,          1.5,          9.5
   4999,          -4.,          1.5,          9.5
   5000,         -3.5,          1.5,          9.5
   5001,          -3.,          1.5,          9.5
   5002,         -2.5,          1.5,          9.5
   5003,          -2.,          1.5,          9.5
   5004,         -1.5,          1.5,          9.5
   5005,          -1.,          1.5,          9.5
   5006,         -0.5,          1.5,          9.5
   5007,           0.,          1.5,          9.5
   5008,          0.5,          1.5,          9.5
   5009,           1.,          1.5,          9.5
   5010,          1.5,          1.5,          9.5
   5011,           2.,          1.5,          9.5
   5012,          2.5,          1.5,          9.5
   5013,           3.,          1.5,          9.5
   5014,          3.5,          1.5,          9.5
   5015,           4.,          1.5,          9.5
   5016,          4.5,          1.5,          9.5
   5017,           5.,          1.5,          9.5
   5018,          5.5,          1.5,          9.5
   5019,           6.,          1.5,          9.5
   5020,          6.5,          1.5,          9.5
   5021,           7.,          1.5,          9.5
   5022,          -7.,          1.5,          10.
   5023,         -6.5,          1.5,          10.
   5024,          -6.,          1.5,          10.
   5025,         -5.5,          1.5,          10.
   5026,          -5.,          1.5,          10.
   5027,         -4.5,          1.5,          10.
   5028,          -4.,          1.5,          10.
   5029,         -3.5,          1.5,          10.
   5030,          -3.,          1.5,          10.
   5031,         -2.5,          1.5,          10.
   5032,          -2.,          1.5,          10.
   5033,         -1.5,          1.5,          10.
   5034,          -1.,          1.5,          10.
   5035,         -0.5,          1.5,          10.
   5036,           0.,          1.5,          10.
   5037,          0.5,          1.5,          10.
   5038,           1.,          1.5,          10.
   5039,          1.5,          1.5,          10.
   5040,           2.,          1.5,          10.
   5041,          2.5,          1.5,          10.
   5042,           3.,          1.5,          10.
   5043,          3.5,          1.5,          10.
   5044,           4.,          1.5,          10.
   5045,          4.5,          1.5,          10.
   5046,           5.,          1.5,          10.
   5047,          5.5,          1.5,          10.
   5048,           6.,          1.5,          10.
   5049,          6.5,          1.5,          10.
   5050,           7.,          1.5,          10.
   5051,          -7.,          1.5,         10.5
   5052,         -6.5,          1.5,         10.5
   5053,          -6.,          1.5,         10.5
   5054,         -5.5,          1.5,         10.5
   5055,          -5.,          1.5,         10.5
   5056,         -4.5,          1.5,         10.5
   5057,          -4.,          1.5,         10.5
   5058,         -3.5,          1.5,         10.5
   5059,          -3.,          1.5,         10.5
   5060,         -2.5,          1.5,         10.5
   5061,          -2.,          1.5,         10.5
   5062,         -1.5,          1.5,         10.5
   5063,          -1.,          1.5,         10.5
   5064,         -0.5,          1.5,         10.5
   5065,           0.,          1.5,         10.5
   5066,          0.5,          1.5,         10.5
   5067,           1.,          1.5,         10.5
   5068,          1.5,          1.5,         10.5
   5069,           2.,          1.5,         10.5
   5070,          2.5,          1.5,         10.5
   5071,           3.,          1.5,         10.5
   5072,          3.5,          1.5,         10.5
   5073,           4.,          1.5,         10.5
   5074,          4.5,          1.5,         10.5
   5075,           5.,          1.5,         10.5
   5076,          5.5,          1.5,         10.5
   5077,           6.,          1.5,         10.5
   5078,          6.5,          1.5,         10.5
   5079,           7.,          1.5,         10.5
   5080,          -7.,          1.5,          11.
   5081,         -6.5,          1.5,          11.
   5082,          -6.,          1.5,          11.
   5083,         -5.5,          1.5,          11.
   5084,          -5.,          1.5,          11.
   5085,         -4.5,          1.5,          11.
   5086,          -4.,          1.5,          11.
   5087,         -3.5,          1.5,          11.
   5088,          -3.,          1.5,          11.
   5089,         -2.5,          1.5,          11.
   5090,          -2.,          1.5,          11.
   5091,         -1.5,          1.5,          11.
   5092,          -1.,          1.5,          11.
   5093,         -0.5,          1.5,          11.
   5094,           0.,          1.5,          11.
   5095,          0.5,          1.5,          11.
   5096,           1.,          1.5,          11.
   5097,          1.5,          1.5,          11.
   5098,           2.,          1.5,          11.
   5099,          2.5,          1.5,          11.
   5100,           3.,          1.5,          11.
   5101,          3.5,          1.5,          11.
   5102,           4.,          1.5,          11.
   5103,          4.5,          1.5,          11.
   5104,           5.,          1.5,          11.
   5105,          5.5,          1.5,          11.
   5106,           6.,          1.5,          11.
   5107,          6.5,          1.5,          11.
   5108,           7.,          1.5,          11.
   5109,          -7.,          1.5,         11.5
   5110,         -6.5,          1.5,         11.5
   5111,          -6.,          1.5,         11.5
   5112,         -5.5,          1.5,         11.5
   5113,          -5.,          1.5,         11.5
   5114,         -4.5,          1.5,         11.5
   5115,          -4.,          1.5,         11.5
   5116,         -3.5,          1.5,         11.5
   5117,          -3.,          1.5,         11.5
   5118,         -2.5,          1.5,         11.5
   5119,          -2.,          1.5,         11.5
   5120,         -1.5,          1.5,         11.5
   5121,          -1.,          1.5,         11.5
   5122,         -0.5,          1.5,         11.5
   5123,           0.,          1.5,         11.5
   5124,          0.5,          1.5,         11.5
   5125,           1.,          1.5,         11.5
   5126,          1.5,          1.5,         11.5
   5127,           2.,          1.5,         11.5
   5128,          2.5,          1.5,         11.5
   5129,           3.,          1.5,         11.5
   5130,          3.5,          1.5,         11.5
   5131,           4.,          1.5,         11.5
   5132,          4.5,          1.5,         11.5
   5133,           5.,          1.5,         11.5
   5134,          5.5,          1.5,         11.5
   5135,           6.,          1.5,         11.5
   5136,          6.5,          1.5,         11.5
   5137,           7.,          1.5,         11.5
   5138,          -7.,          1.5,          12.
   5139,         -6.5,          1.5,          12.
   5140,          -6.,          1.5,          12.
   5141,         -5.5,          1.5,          12.
   5142,          -5.,          1.5,          12.
   5143,         -4.5,          1.5,          12.
   5144,          -4.,          1.5,          12.
   5145,         -3.5,          1.5,          12.
   5146,          -3.,          1.5,          12.
   5147,         -2.5,          1.5,          12.
   5148,          -2.,          1.5,          12.
   5149,         -1.5,          1.5,          12.
   5150,          -1.,          1.5,          12.
   5151,         -0.5,          1.5,          12.
   5152,           0.,          1.5,          12.
   5153,          0.5,          1.5,          12.
   5154,           1.,          1.5,          12.
   5155,          1.5,          1.5,          12.
   5156,           2.,          1.5,          12.
   5157,          2.5,          1.5,          12.
   5158,           3.,          1.5,          12.
   5159,          3.5,          1.5,          12.
   5160,           4.,          1.5,          12.
   5161,          4.5,          1.5,          12.
   5162,           5.,          1.5,          12.
   5163,          5.5,          1.5,          12.
   5164,           6.,          1.5,          12.
   5165,          6.5,          1.5,          12.
   5166,           7.,          1.5,          12.
   5167,          -7.,          1.5,         12.5
   5168,         -6.5,          1.5,         12.5
   5169,          -6.,          1.5,         12.5
   5170,         -5.5,          1.5,         12.5
   5171,          -5.,          1.5,         12.5
   5172,         -4.5,          1.5,         12.5
   5173,          -4.,          1.5,         12.5
   5174,         -3.5,          1.5,         12.5
   5175,          -3.,          1.5,         12.5
   5176,         -2.5,          1.5,         12.5
   5177,          -2.,          1.5,         12.5
   5178,         -1.5,          1.5,         12.5
   5179,          -1.,          1.5,         12.5
   5180,         -0.5,          1.5,         12.5
   5181,           0.,          1.5,         12.5
   5182,          0.5,          1.5,         12.5
   5183,           1.,          1.5,         12.5
   5184,          1.5,          1.5,         12.5
   5185,           2.,          1.5,         12.5
   5186,          2.5,          1.5,         12.5
   5187,           3.,          1.5,         12.5
   5188,          3.5,          1.5,         12.5
   5189,           4.,          1.5,         12.5
   5190,          4.5,          1.5,         12.5
   5191,           5.,          1.5,         12.5
   5192,          5.5,          1.5,         12.5
   5193,           6.,          1.5,         12.5
   5194,          6.5,          1.5,         12.5
   5195,           7.,          1.5,         12.5
   5196,          -7.,          1.5,          13.
   5197,         -6.5,          1.5,          13.
   5198,          -6.,          1.5,          13.
   5199,         -5.5,          1.5,          13.
   5200,          -5.,          1.5,          13.
   5201,         -4.5,          1.5,          13.
   5202,          -4.,          1.5,          13.
   5203,         -3.5,          1.5,          13.
   5204,          -3.,          1.5,          13.
   5205,         -2.5,          1.5,          13.
   5206,          -2.,          1.5,          13.
   5207,         -1.5,          1.5,          13.
   5208,          -1.,          1.5,          13.
   5209,         -0.5,          1.5,          13.
   5210,           0.,          1.5,          13.
   5211,          0.5,          1.5,          13.
   5212,           1.,          1.5,          13.
   5213,          1.5,          1.5,          13.
   5214,           2.,          1.5,          13.
   5215,          2.5,          1.5,          13.
   5216,           3.,          1.5,          13.
   5217,          3.5,          1.5,          13.
   5218,           4.,          1.5,          13.
   5219,          4.5,          1.5,          13.
   5220,           5.,          1.5,          13.
   5221,          5.5,          1.5,          13.
   5222,           6.,          1.5,          13.
   5223,          6.5,          1.5,          13.
   5224,           7.,          1.5,          13.
   5225,          -7.,          1.5,         13.5
   5226,         -6.5,          1.5,         13.5
   5227,          -6.,          1.5,         13.5
   5228,         -5.5,          1.5,         13.5
   5229,          -5.,          1.5,         13.5
   5230,         -4.5,          1.5,         13.5
   5231,          -4.,          1.5,         13.5
   5232,         -3.5,          1.5,         13.5
   5233,          -3.,          1.5,         13.5
   5234,         -2.5,          1.5,         13.5
   5235,          -2.,          1.5,         13.5
   5236,         -1.5,          1.5,         13.5
   5237,          -1.,          1.5,         13.5
   5238,         -0.5,          1.5,         13.5
   5239,           0.,          1.5,         13.5
   5240,          0.5,          1.5,         13.5
   5241,           1.,          1.5,         13.5
   5242,          1.5,          1.5,         13.5
   5243,           2.,          1.5,         13.5
   5244,          2.5,          1.5,         13.5
   5245,           3.,          1.5,         13.5
   5246,          3.5,          1.5,         13.5
   5247,           4.,          1.5,         13.5
   5248,          4.5,          1.5,         13.5
   5249,           5.,          1.5,         13.5
   5250,          5.5,          1.5,         13.5
   5251,           6.,          1.5,         13.5
   5252,          6.5,          1.5,         13.5
   5253,           7.,          1.5,         13.5
   5254,          -7.,          1.5,          14.
   5255,         -6.5,          1.5,          14.
   5256,          -6.,          1.5,          14.
   5257,         -5.5,          1.5,          14.
   5258,          -5.,          1.5,          14.
   5259,         -4.5,          1.5,          14.
   5260,          -4.,          1.5,          14.
   5261,         -3.5,          1.5,          14.
   5262,          -3.,          1.5,          14.
   5263,         -2.5,          1.5,          14.
   5264,          -2.,          1.5,          14.
   5265,         -1.5,          1.5,          14.
   5266,          -1.,          1.5,          14.
   5267,         -0.5,          1.5,          14.
   5268,           0.,          1.5,          14.
   5269,          0.5,          1.5,          14.
   5270,           1.,          1.5,          14.
   5271,          1.5,          1.5,          14.
   5272,           2.,          1.5,          14.
   5273,          2.5,          1.5,          14.
   5274,           3.,          1.5,          14.
   5275,          3.5,          1.5,          14.
   5276,           4.,          1.5,          14.
   5277,          4.5,          1.5,          14.
   5278,           5.,          1.5,          14.
   5279,          5.5,          1.5,          14.
   5280,           6.,          1.5,          14.
   5281,          6.5,          1.5,          14.
   5282,           7.,          1.5,          14.
   5283,          -7.,          1.5,         14.5
   5284,         -6.5,          1.5,         14.5
   5285,          -6.,          1.5,         14.5
   5286,         -5.5,          1.5,         14.5
   5287,          -5.,          1.5,         14.5
   5288,         -4.5,          1.5,         14.5
   5289,          -4.,          1.5,         14.5
   5290,         -3.5,          1.5,         14.5
   5291,          -3.,          1.5,         14.5
   5292,         -2.5,          1.5,         14.5
   5293,          -2.,          1.5,         14.5
   5294,         -1.5,          1.5,         14.5
   5295,          -1.,          1.5,         14.5
   5296,         -0.5,          1.5,         14.5
   5297,           0.,          1.5,         14.5
   5298,          0.5,          1.5,         14.5
   5299,           1.,          1.5,         14.5
   5300,          1.5,          1.5,         14.5
   5301,           2.,          1.5,         14.5
   5302,          2.5,          1.5,         14.5
   5303,           3.,          1.5,         14.5
   5304,          3.5,          1.5,         14.5
   5305,           4.,          1.5,         14.5
   5306,          4.5,          1.5,         14.5
   5307,           5.,          1.5,         14.5
   5308,          5.5,          1.5,         14.5
   5309,           6.,          1.5,         14.5
   5310,          6.5,          1.5,         14.5
   5311,           7.,          1.5,         14.5
   5312,          -7.,          1.5,          15.
   5313,         -6.5,          1.5,          15.
   5314,          -6.,          1.5,          15.
   5315,         -5.5,          1.5,          15.
   5316,          -5.,          1.5,          15.
   5317,         -4.5,          1.5,          15.
   5318,          -4.,          1.5,          15.
   5319,         -3.5,          1.5,          15.
   5320,          -3.,          1.5,          15.
   5321,         -2.5,          1.5,          15.
   5322,          -2.,          1.5,          15.
   5323,         -1.5,          1.5,          15.
   5324,          -1.,          1.5,          15.
   5325,         -0.5,          1.5,          15.
   5326,           0.,          1.5,          15.
   5327,          0.5,          1.5,          15.
   5328,           1.,          1.5,          15.
   5329,          1.5,          1.5,          15.
   5330,           2.,          1.5,          15.
   5331,          2.5,          1.5,          15.
   5332,           3.,          1.5,          15.
   5333,          3.5,          1.5,          15.
   5334,           4.,          1.5,          15.
   5335,          4.5,          1.5,          15.
   5336,           5.,          1.5,          15.
   5337,          5.5,          1.5,          15.
   5338,           6.,          1.5,          15.
   5339,          6.5,          1.5,          15.
   5340,           7.,          1.5,          15.
   5341,          -7.,          1.5,         15.5
   5342,         -6.5,          1.5,         15.5
   5343,          -6.,          1.5,         15.5
   5344,         -5.5,          1.5,         15.5
   5345,          -5.,          1.5,         15.5
   5346,         -4.5,          1.5,         15.5
   5347,          -4.,          1.5,         15.5
   5348,         -3.5,          1.5,         15.5
   5349,          -3.,          1.5,         15.5
   5350,         -2.5,          1.5,         15.5
   5351,          -2.,          1.5,         15.5
   5352,         -1.5,          1.5,         15.5
   5353,          -1.,          1.5,         15.5
   5354,         -0.5,          1.5,         15.5
   5355,           0.,          1.5,         15.5
   5356,          0.5,          1.5,         15.5
   5357,           1.,          1.5,         15.5
   5358,          1.5,          1.5,         15.5
   5359,           2.,          1.5,         15.5
   5360,          2.5,          1.5,         15.5
   5361,           3.,          1.5,         15.5
   5362,          3.5,          1.5,         15.5
   5363,           4.,          1.5,         15.5
   5364,          4.5,          1.5,         15.5
   5365,           5.,          1.5,         15.5
   5366,          5.5,          1.5,         15.5
   5367,           6.,          1.5,         15.5
   5368,          6.5,          1.5,         15.5
   5369,           7.,          1.5,         15.5
   5370,          -7.,          1.5,          16.
   5371,         -6.5,          1.5,          16.
   5372,          -6.,          1.5,          16.
   5373,         -5.5,          1.5,          16.
   5374,          -5.,          1.5,          16.
   5375,         -4.5,          1.5,          16.
   5376,          -4.,          1.5,          16.
   5377,         -3.5,          1.5,          16.
   5378,          -3.,          1.5,          16.
   5379,         -2.5,          1.5,          16.
   5380,          -2.,          1.5,          16.
   5381,         -1.5,          1.5,          16.
   5382,          -1.,          1.5,          16.
   5383,         -0.5,          1.5,          16.
   5384,           0.,          1.5,          16.
   5385,          0.5,          1.5,          16.
   5386,           1.,          1.5,          16.
   5387,          1.5,          1.5,          16.
   5388,           2.,          1.5,          16.
   5389,          2.5,          1.5,          16.
   5390,           3.,          1.5,          16.
   5391,          3.5,          1.5,          16.
   5392,           4.,          1.5,          16.
   5393,          4.5,          1.5,          16.
   5394,           5.,          1.5,          16.
   5395,          5.5,          1.5,          16.
   5396,           6.,          1.5,          16.
   5397,          6.5,          1.5,          16.
   5398,           7.,          1.5,          16.
   5399,  -6.61818171,          1.5,  0.962212324
   5400,   7.89047241,          1.5,   2.43746781
   5401,  -7.70136356,          1.5,   1.03730106
   5402,  -5.57324743,          1.5,   1.12080479
   5403,  -4.62498951,          1.5,  0.978572428
   5404,   -3.3877728,          1.5,   1.01729417
   5405,  -2.46932435,          1.5,   1.13675988
   5406,  -1.42463374,          1.5,  0.964523852
   5407, -0.341211677,          1.5,   1.00809944
   5408,  0.668547451,          1.5,   1.03895867
   5409,   1.81920505,          1.5,   1.08651793
   5410,   2.81475925,          1.5,  0.992671371
   5411,   3.85375047,          1.5,  0.983120978
   5412,   4.97732639,          1.5,   1.16365051
   5413,   5.98186016,          1.5,   1.11112905
   5414,   6.93442822,          1.5,   1.15345204
   5415,   7.89582014,          1.5,   1.20078659
   5416,  -7.86774158,          1.5,   2.05084753
   5417,  -7.83836651,          1.5,   2.97587299
   5418,  -7.96743393,          1.5,   3.89565086
   5419,  -8.03316402,          1.5,   5.13424826
   5420,  -8.01168537,          1.5,   6.17382574
   5421,  -7.98377275,          1.5,   7.18455505
   5422,  -7.90689421,          1.5,   8.33893299
   5423,   -7.9940033,          1.5,    9.3381691
   5424,  -8.03526878,          1.5,   10.4250164
   5425,  -7.86203241,          1.5,   11.4696608
   5426,  -7.98236847,          1.5,   12.3880577
   5427,  -8.02211857,          1.5,   13.6251879
   5428,  -7.87984705,          1.5,   14.5733576
   5429,  -8.03772736,          1.5,   15.6179934
   5430,   7.79560995,          1.5,   16.8884373
   5431,   6.59399176,          1.5,   17.0446548
   5432,   5.49497032,          1.5,   16.8905258
   5433,   4.49248362,          1.5,   16.9075985
   5434,   3.43815064,          1.5,   16.8905067
   5435,   2.41457105,          1.5,   16.9911537
   5436,   1.45798314,          1.5,   16.8969803
   5437,  0.349581152,          1.5,   16.9992199
   5438, -0.566483974,          1.5,   16.8642902
   5439,  -2.00486779,          1.5,   16.8673038
   5440,  -2.99646235,          1.5,   16.8740692
   5441,  -3.98931026,          1.5,   16.8987064
   5442,   -5.0414772,          1.5,   16.8782959
   5443,  -5.99973822,          1.5,   16.8553581
   5444,  -6.94317245,          1.5,   16.8742619
   5445,  -7.96174097,          1.5,   16.7020378
   5446,   7.82518053,          1.5,   15.9483318
   5447,   7.84632206,          1.5,    15.046051
   5448,   8.00544643,          1.5,    14.121315
   5449,   7.96770573,          1.5,   12.9107208
   5450,   7.85546398,          1.5,   11.9844456
   5451,   7.95658636,          1.5,   10.9151564
   5452,   7.96421623,          1.5,   9.67096615
   5453,   7.99157381,          1.5,   8.65863228
   5454,      8.03827,          1.5,   7.57617235
   5455,   7.86544895,          1.5,   6.52779198
   5456,   7.97688627,          1.5,   5.60042763
   5457,   8.02678299,          1.5,    4.3648963
   5458,   7.94719648,          1.5,    3.3535018
   5459,  -7.38659096,          1.5,   16.9713058
   5460,   6.47684765,          1.5,   1.13726151
   5461,  -6.48085785,          1.5,   16.8587112
   5462,    7.8667779,          1.5,   12.4562387
   5463,   3.32808065,          1.5,  0.989015639
   5464,   7.87445402,          1.5,     6.058815
   5465,  -8.02110767,          1.5,   5.66368818
   5466,  -3.49164701,          1.5,   16.8798752
   5467,   2.65270996,          1.5,  0.512361646
   5468,   4.18367958,          1.5,   0.45541957
   5469,   5.51904917,          1.5,  0.400230736
   5470,   6.01136923,          1.5,  0.375031203
   5471,   6.49511814,          1.5,   0.38638714
   5472,   6.98858261,          1.5,  0.415299952
   5473,   7.49326277,          1.5,  0.473755628
   5474,   1.48778534,          1.5,  0.645370662
   5475,  0.338280737,          1.5,  0.531781971
   5476, -0.676738024,          1.5,  0.500184655
   5477,    -2.034091,          1.5,  0.361862093
   5478,  -1.99044466,          1.5,   1.10102367
   5479,   -3.0879519,          1.5,  0.519978285
   5480,  -2.93196177,          1.5,   1.12413669
   5481,   -8.5420866,          1.5,    1.5952729
   5482,  -8.40893841,          1.5,  0.561505973
   5483,  -4.83951902,          1.5,  0.494309932
   5484,  -3.99139619,          1.5,  0.266604483
   5485,  -7.96955347,          1.5,   1.60918152
   5486,  -8.57875061,          1.5,   3.00663733
   5487,  -7.84652138,          1.5,   2.50828218
   5488,  -8.56418037,          1.5,   4.13932133
   5489,  -7.85972357,          1.5,    3.4419167
   5490,  -7.89827394,          1.5,   10.9902658
   5491,  -7.87490273,          1.5,   11.9330988
   5492,   -8.5064764,          1.5,   13.8398247
   5493,  -8.73374748,          1.5,   12.9915066
   5494,  -8.63232613,          1.5,   10.5811768
   5495,  -8.49956226,          1.5,   9.67612076
   5496,  -8.45814991,          1.5,   8.63794231
   5497,  -8.46423531,          1.5,   7.37290955
   5498,  -8.50687218,          1.5,   5.83176279
   5499,  -8.60064125,          1.5,   14.9797878
   5500,  -8.48878956,          1.5,   16.3477249
   5501,  -6.94748592,          1.5,   17.6069088
   5502,  -7.40183163,          1.5,   17.5466709
   5503,  -8.43778419,          1.5,   17.4094944
   5504,  -2.49873567,          1.5,   17.6254501
   5505,  -3.96629143,          1.5,   17.6397476
   5506,  -1.50522768,          1.5,   17.6132355
   5507, -0.413324714,          1.5,    17.454916
   5508,  0.633875549,          1.5,    17.550045
   5509,   2.06181812,          1.5,   17.5067329
   5510,   1.93425846,          1.5,   16.8882561
   5511,   3.01583314,          1.5,   17.6142025
   5512,   2.96312666,          1.5,   16.8870583
   5513,   8.56303787,          1.5,    15.989521
   5514,   8.45266438,          1.5,   16.9736748
   5515,   5.00168228,          1.5,   17.6411495
   5516,   4.03903866,          1.5,   17.6273918
   5517,   7.81373882,          1.5,    16.306509
   5518,   8.43384647,          1.5,   14.8934298
   5519,   8.55883789,          1.5,   15.4821682
   5520,   7.82873011,          1.5,   15.5039911
   5521,   8.56513786,          1.5,   13.8330641
   5522,   8.49036217,          1.5,    14.334981
   5523,   7.93523073,          1.5,   14.6198053
   5524,   7.90186024,          1.5,   7.01075506
   5525,    8.4738636,          1.5,   5.90066528
   5526,   8.72874355,          1.5,   5.00439119
   5527,   8.50957298,          1.5,   4.17302656
   5528,   8.58959007,          1.5,   2.51122403
   5529,    8.5265522,          1.5,   1.58770669
   5530,   8.47148991,          1.5,   0.53763175
   5531,  -4.92646027,          1.5,   17.4984627
   5532,  -5.49769783,          1.5,   17.5954399
   5533,  -5.99641562,          1.5,   17.6136227
   5534,  -6.48090506,          1.5,    17.618063
   5535,   4.97451544,          1.5,  0.536018074
   5536,   8.63846397,          1.5,   6.96528769
   5537,   8.49990654,          1.5,   8.32329369
   5538,   8.46898174,          1.5,   9.33791256
   5539,   8.39181137,          1.5,   10.4655495
   5540,   8.60994911,          1.5,   11.5287743
   5541,  -7.34762812,          1.5,  0.510729492
   5542,  -6.45626879,          1.5,  0.379051387
   5543,   7.29806471,          1.5,   1.17127383
   5544,  -8.47990608,          1.5,   12.0872278
   5545,   7.35540771,          1.5,   17.4795094
   5546,   6.43664312,          1.5,   17.6351204
   5547,   2.31214619,          1.5,   1.01506627
   5548,  -3.99625945,          1.5,  0.873704076
   5549,  -6.05159664,          1.5,   1.09987652
   5550,   -7.1620326,          1.5,   1.00455678
   5551,  -7.99967146,          1.5,   6.67410421
   5552,  -8.12657356,          1.5,   12.9964161
   5553,  -7.90049171,          1.5,   15.0518017
   5554,  -7.99508238,          1.5,   16.1620998
   5555,  -2.50052738,          1.5,   16.8711414
   5556,    3.9222343,          1.5,   17.0086613
   5557,   6.00257301,          1.5,   16.9163036
   5558,   7.87539768,          1.5,   11.4939833
   5559,   8.12267876,          1.5,   4.99548531
   5560,   7.87197971,          1.5,   2.92048097
   5561,   8.01587963,          1.5,   1.84664822
   5562,   7.89568281,          1.5,   17.4422073
   5563,   6.86573315,          1.5,   17.5469379
   5564,   5.96991634,          1.5,   17.6464729
   5565,   5.48997307,          1.5,   17.6416912
   5566,   4.51923704,          1.5,   17.6456375
   5567,   3.55752182,          1.5,   17.5134201
   5568,    2.5416131,          1.5,   17.6115952
   5569,   1.52376652,          1.5,      17.6159
   5570,   1.05813587,          1.5,   17.6254253
   5571,  0.147963658,          1.5,   17.4985218
   5572,  -0.99972266,          1.5,   17.5849171
   5573,  -2.00201726,          1.5,    17.621418
   5574,  -2.99401236,          1.5,   17.6295204
   5575,  -3.48585844,          1.5,   17.6351662
   5576,  -4.44184971,          1.5,   17.6180859
   5577,  -7.86108351,          1.5,   17.3222828
   5578,  -8.32042789,          1.5,   1.13711345
   5579,  -8.60451889,          1.5,   2.05094838
   5580,  -8.60653687,          1.5,   2.51642871
   5581,  -8.46081257,          1.5,   3.59405661
   5582,  -8.72653008,          1.5,    4.4924798
   5583,  -8.51726151,          1.5,   5.32105398
   5584,  -8.49991131,          1.5,   6.33913612
   5585,  -8.48563766,          1.5,   6.84435749
   5586,  -8.35788345,          1.5,   8.00419712
   5587,  -8.48060131,          1.5,   9.16540432
   5588,  -8.54977608,          1.5,   10.1526852
   5589,  -8.63822556,          1.5,   11.0317364
   5590,  -8.60404587,          1.5,   11.5123138
   5591,  -8.58008099,          1.5,   12.6387892
   5592,  -8.46062565,          1.5,    14.404624
   5593,  -8.62067127,          1.5,   15.4553576
   5594,  -8.54734039,          1.5,   15.8755713
   5595,  -8.45694447,          1.5,   16.8635635
   5596,  -7.86316729,          1.5,  0.542395771
   5597,  -6.87575388,          1.5,  0.452373505
   5598,  -5.97751713,          1.5,  0.399820089
   5599,  -5.40395403,          1.5,  0.540089786
   5600,  -3.63889909,          1.5,  0.420024425
   5601,    -2.512573,          1.5,  0.395316601
   5602,   -1.5815624,          1.5,  0.369001508
   5603,  -1.15262306,          1.5,  0.450613171
   5604, -0.169704303,          1.5,  0.514958501
   5605,   0.86220181,          1.5,  0.552243769
   5606,   2.12664342,          1.5,  0.539433181
   5607,   3.16533303,          1.5,  0.506898224
   5608,   3.67842102,          1.5,  0.498326629
   5609,   4.53369904,          1.5,  0.318448186
   5610,   7.97664356,          1.5,  0.542551637
   5611,   8.45888519,          1.5,   1.08961833
   5612,   8.60728359,          1.5,    2.0241363
   5613,   8.45032883,          1.5,   3.08827353
   5614,   8.48804855,          1.5,   3.65205646
   5615,   8.58244228,          1.5,   4.66496658
   5616,   8.60203552,          1.5,   6.48349953
   5617,   8.63270378,          1.5,   7.41772747
   5618,     8.550313,          1.5,   7.84787369
   5619,   8.48522854,          1.5,    8.8302269
   5620,   8.45627499,          1.5,   9.85904789
   5621,   8.57782841,          1.5,   11.0303583
   5622,   8.58462906,          1.5,    12.024847
   5623,    8.4618187,          1.5,    12.612772
   5624,   8.72194672,          1.5,   13.4953938
   5625,   8.51719379,          1.5,   16.4951134
   5626,   5.39286947,          1.5,   1.00923598
   5627,   7.99873114,          1.5,    3.8371799
   5628,  -7.95722961,          1.5,   14.1333981
   5629,  -5.13305902,          1.5,   1.04332423
   5630,  -5.52053738,          1.5,   16.8550892
   5631,   4.99731588,          1.5,   16.8890896
   5632,    4.4859848,          1.5,  0.921600282
   5633,  -8.12118149,          1.5,   4.50147152
   5634,   8.11248779,          1.5,   13.5046644
   5635,  -4.55398607,          1.5,   16.9958153
   5636,  -8.31181145,          1.5,   10.6689768
   5637,  -7.90826416,          1.5,   7.66806793
   5638,  -7.97634888,          1.5,   8.82846546
   5639,   -8.0060606,          1.5,   9.85726833
   5640,   7.98324919,          1.5,   9.16696262
   5641,   7.77208424,          1.5,   10.5140495
   5642,   8.26582432,          1.5,   11.1415796
   5643,  0.898449898,          1.5,   17.0371475
   5644, -0.138576031,          1.5,   16.9456844
   5645,  -1.51255584,          1.5,   16.8615589
   5646, -0.857917607,          1.5,  0.994718552
   5647,  0.166195288,          1.5,    1.0171448
   5648,   1.49146688,          1.5,   1.24531353
   5649,   8.00600243,          1.5,   8.14235497
   5650,   8.17817688,          1.5,   12.3675957
   5651,   8.18057346,          1.5,   2.84069085
   5652,   6.34566355,          1.5,   17.3230057
   5653,  -8.24814796,          1.5,   15.0180855
   5654,  -6.01734257,          1.5,  0.752438784
   5655,   5.95524645,          1.5,   17.2796383
   5656,   2.98677158,          1.5,   17.2477856
   5657,     8.190341,          1.5,   6.14830446
   5658,  -2.84148335,          1.5,  0.807414889
   5659,  -8.19170666,          1.5,   11.8416853
   5660,   7.17437029,          1.5,   16.9843502
   5661,  -6.46911383,          1.5,   17.2341557
   5662,    8.1749773,          1.5,   15.9681559
   5663,  -8.22064304,          1.5,   2.51780677
   5664,   6.95594835,          1.5,  0.800990403
   5665,   1.83829391,          1.5,   17.2127666
   5666,   8.31549168,          1.5,   7.33166075
   5667,  -1.66900814,          1.5,  0.687740803
   5668,   7.42209911,          1.5,  0.908430874
   5669,   8.07811546,          1.5,   16.4270401
   5670,   8.18891811,          1.5,   15.5186739
   5671,   6.48695326,          1.5,  0.767447889
   5672,   8.45725155,          1.5,   17.4630947
   5673,   1.15491271,          1.5,   1.10377347
   5674,   -7.7577548,          1.5,   8.00159836
   5675,   -1.0316062,          1.5,   16.8530884
   5676,   7.91398382,          1.5,   10.1611662
   5677,   5.48661375,          1.5,   17.2676716
   5678,   5.00314999,          1.5,   17.2673531
   5679,  -7.24111795,          1.5,   17.2432346
   5680,  -6.90208864,          1.5,   17.2397213
   5681,  -6.00067091,          1.5,   17.2332211
   5682,  -8.23916245,          1.5,   1.75508296
   5683,  -8.23323917,          1.5,   2.09264565
   5684,  -8.20787239,          1.5,   2.96320748
   5685,   6.02294779,          1.5,  0.748679519
   5686,    5.6240654,          1.5,  0.714084983
   5687,   4.53483343,          1.5,    17.276823
   5688,   4.14850187,          1.5,   17.3072262
   5689,  -8.17100334,          1.5,   3.34844017
   5690,   3.33753848,          1.5,   17.2144089
   5691,  -8.58339024,          1.5,   4.83119249
   5692,  -8.23577213,          1.5,   11.4677773
   5693,   1.13745117,          1.5,   17.3067417
   5694, -0.658863366,          1.5,   17.1772079
   5695,   -1.0472939,          1.5,    17.220787
   5696,  -1.51573825,          1.5,   17.2361202
   5697,  -2.00488687,          1.5,   17.2431965
   5698,  -2.49935818,          1.5,   17.2477722
   5699,  -2.99341393,          1.5,   17.2520638
   5700,  -3.48126221,          1.5,   17.2577591
   5701,  -3.94566035,          1.5,   17.2677383
   5702,  -4.33010864,          1.5,   17.2965393
   5703,  -5.15153837,          1.5,   17.1975842
   5704,  -5.53879452,          1.5,   17.2261086
   5705,  -8.58333778,          1.5,   13.3349609
   5706,  -8.19144058,          1.5,   14.6504469
   5707,  -8.30537605,          1.5,   15.3767538
   5708,  -2.46782899,          1.5,  0.763178289
   5709,  -4.33478642,          1.5,   0.41710037
   5710,  -5.65002584,          1.5,   0.80930835
   5711,  -6.37706757,          1.5,  0.694701135
   5712,  -8.26444721,          1.5,   11.0373363
   5713,  -2.03814483,          1.5,   0.73499459
   5714,   8.26696777,          1.5,   6.96219873
   5715,   2.63784194,          1.5,   17.2858334
   5716,   1.49017203,          1.5,   17.2558289
   5717,   8.23728848,          1.5,   6.52848005
   5718,   8.29178333,          1.5,   2.09824634
   5719,   8.23726177,          1.5,   2.47182727
   5720,   8.15237331,          1.5,   15.1372337
   5721,   8.56809235,          1.5,   13.1478786
   5722,   8.22116089,          1.5,    11.981245
   5723,   8.23941994,          1.5,    11.533576
   5724,   8.57458305,          1.5,   5.35429764
*Element, type=C3D8RH
   1,  124,  265,    9,    1, 1555, 1696, 1440, 1432
   2,  265,  266,   10,    9, 1696, 1697, 1441, 1440
   3,  266,  267,   11,   10, 1697, 1698, 1442, 1441
   4,  267,  268,   12,   11, 1698, 1699, 1443, 1442
   5,  268,  269,   13,   12, 1699, 1700, 1444, 1443
   6,  269,  270,   14,   13, 1700, 1701, 1445, 1444
   7,  270,  271,   15,   14, 1701, 1702, 1446, 1445
   8,  271,  272,   16,   15, 1702, 1703, 1447, 1446
   9,  272,  273,   17,   16, 1703, 1704, 1448, 1447
  10,  273,  274,   18,   17, 1704, 1705, 1449, 1448
  11,  274,  275,   19,   18, 1705, 1706, 1450, 1449
  12,  275,  276,   20,   19, 1706, 1707, 1451, 1450
  13,  276,  277,   21,   20, 1707, 1708, 1452, 1451
  14,  277,  278,   22,   21, 1708, 1709, 1453, 1452
  15,  278,  279,   23,   22, 1709, 1710, 1454, 1453
  16,  279,  280,   24,   23, 1710, 1711, 1455, 1454
  17,  280,  281,   25,   24, 1711, 1712, 1456, 1455
  18,  281,  282,   26,   25, 1712, 1713, 1457, 1456
  19,  282,  283,   27,   26, 1713, 1714, 1458, 1457
  20,  283,  284,   28,   27, 1714, 1715, 1459, 1458
  21,  284,  285,   29,   28, 1715, 1716, 1460, 1459
  22,  285,  286,   30,   29, 1716, 1717, 1461, 1460
  23,  286,  287,   31,   30, 1717, 1718, 1462, 1461
  24,  287,  288,   32,   31, 1718, 1719, 1463, 1462
  25,  288,  289,   33,   32, 1719, 1720, 1464, 1463
  26,  289,  290,   34,   33, 1720, 1721, 1465, 1464
  27,  290,  291,   35,   34, 1721, 1722, 1466, 1465
  28,  291,  292,   36,   35, 1722, 1723, 1467, 1466
  29,  292,  293,   37,   36, 1723, 1724, 1468, 1467
  30,  293,   38,    2,   37, 1724, 1469, 1433, 1468
  31,  123,  294,  265,  124, 1554, 1725, 1696, 1555
  32,  294,  295,  266,  265, 1725, 1726, 1697, 1696
  33,  295,  296,  267,  266, 1726, 1727, 1698, 1697
  34,  296,  297,  268,  267, 1727, 1728, 1699, 1698
  35,  297,  298,  269,  268, 1728, 1729, 1700, 1699
  36,  298,  299,  270,  269, 1729, 1730, 1701, 1700
  37,  299,  300,  271,  270, 1730, 1731, 1702, 1701
  38,  300,  301,  272,  271, 1731, 1732, 1703, 1702
  39,  301,  302,  273,  272, 1732, 1733, 1704, 1703
  40,  302,  303,  274,  273, 1733, 1734, 1705, 1704
  41,  303,  304,  275,  274, 1734, 1735, 1706, 1705
  42,  304,  305,  276,  275, 1735, 1736, 1707, 1706
  43,  305,  306,  277,  276, 1736, 1737, 1708, 1707
  44,  306,  307,  278,  277, 1737, 1738, 1709, 1708
  45,  307,  308,  279,  278, 1738, 1739, 1710, 1709
  46,  308,  309,  280,  279, 1739, 1740, 1711, 1710
  47,  309,  310,  281,  280, 1740, 1741, 1712, 1711
  48,  310,  311,  282,  281, 1741, 1742, 1713, 1712
  49,  311,  312,  283,  282, 1742, 1743, 1714, 1713
  50,  312,  313,  284,  283, 1743, 1744, 1715, 1714
  51,  313,  314,  285,  284, 1744, 1745, 1716, 1715
  52,  314,  315,  286,  285, 1745, 1746, 1717, 1716
  53,  315,  316,  287,  286, 1746, 1747, 1718, 1717
  54,  316,  317,  288,  287, 1747, 1748, 1719, 1718
  55,  317,  318,  289,  288, 1748, 1749, 1720, 1719
  56,  318,  319,  290,  289, 1749, 1750, 1721, 1720
  57,  319,  320,  291,  290, 1750, 1751, 1722, 1721
  58,  320,  321,  292,  291, 1751, 1752, 1723, 1722
  59,  321,  322,  293,  292, 1752, 1753, 1724, 1723
  60,  322,   39,   38,  293, 1753, 1470, 1469, 1724
  61,  122,  323,  294,  123, 1553, 1754, 1725, 1554
  62,  323,  324,  295,  294, 1754, 1755, 1726, 1725
  63,  324,  325,  296,  295, 1755, 1756, 1727, 1726
  64,  325,  326,  297,  296, 1756, 1757, 1728, 1727
  65,  326,  327,  298,  297, 1757, 1758, 1729, 1728
  66,  327,  328,  299,  298, 1758, 1759, 1730, 1729
  67,  328,  329,  300,  299, 1759, 1760, 1731, 1730
  68,  329,  330,  301,  300, 1760, 1761, 1732, 1731
  69,  330,  331,  302,  301, 1761, 1762, 1733, 1732
  70,  331,  332,  303,  302, 1762, 1763, 1734, 1733
  71,  332,  333,  304,  303, 1763, 1764, 1735, 1734
  72,  333,  334,  305,  304, 1764, 1765, 1736, 1735
  73,  334,  335,  306,  305, 1765, 1766, 1737, 1736
  74,  335,  336,  307,  306, 1766, 1767, 1738, 1737
  75,  336,  337,  308,  307, 1767, 1768, 1739, 1738
  76,  337,  338,  309,  308, 1768, 1769, 1740, 1739
  77,  338,  339,  310,  309, 1769, 1770, 1741, 1740
  78,  339,  340,  311,  310, 1770, 1771, 1742, 1741
  79,  340,  341,  312,  311, 1771, 1772, 1743, 1742
  80,  341,  342,  313,  312, 1772, 1773, 1744, 1743
  81,  342,  343,  314,  313, 1773, 1774, 1745, 1744
  82,  343,  344,  315,  314, 1774, 1775, 1746, 1745
  83,  344,  345,  316,  315, 1775, 1776, 1747, 1746
  84,  345,  346,  317,  316, 1776, 1777, 1748, 1747
  85,  346,  347,  318,  317, 1777, 1778, 1749, 1748
  86,  347,  348,  319,  318, 1778, 1779, 1750, 1749
  87,  348,  349,  320,  319, 1779, 1780, 1751, 1750
  88,  349,  350,  321,  320, 1780, 1781, 1752, 1751
  89,  350,  351,  322,  321, 1781, 1782, 1753, 1752
  90,  351,   40,   39,  322, 1782, 1471, 1470, 1753
  91,  121,  352,  323,  122, 1552, 1783, 1754, 1553
  92,  352,  353,  324,  323, 1783, 1784, 1755, 1754
  93,  353,  354,  325,  324, 1784, 1785, 1756, 1755
  94,  354,  355,  326,  325, 1785, 1786, 1757, 1756
  95,  355,  356,  327,  326, 1786, 1787, 1758, 1757
  96,  356,  357,  328,  327, 1787, 1788, 1759, 1758
  97,  357,  358,  329,  328, 1788, 1789, 1760, 1759
  98,  358,  359,  330,  329, 1789, 1790, 1761, 1760
  99,  359,  360,  331,  330, 1790, 1791, 1762, 1761
 100,  360,  361,  332,  331, 1791, 1792, 1763, 1762
 101,  361,  362,  333,  332, 1792, 1793, 1764, 1763
 102,  362,  363,  334,  333, 1793, 1794, 1765, 1764
 103,  363,  364,  335,  334, 1794, 1795, 1766, 1765
 104,  364,  365,  336,  335, 1795, 1796, 1767, 1766
 105,  365,  366,  337,  336, 1796, 1797, 1768, 1767
 106,  366,  367,  338,  337, 1797, 1798, 1769, 1768
 107,  367,  368,  339,  338, 1798, 1799, 1770, 1769
 108,  368,  369,  340,  339, 1799, 1800, 1771, 1770
 109,  369,  370,  341,  340, 1800, 1801, 1772, 1771
 110,  370,  371,  342,  341, 1801, 1802, 1773, 1772
 111,  371,  372,  343,  342, 1802, 1803, 1774, 1773
 112,  372,  373,  344,  343, 1803, 1804, 1775, 1774
 113,  373,  374,  345,  344, 1804, 1805, 1776, 1775
 114,  374,  375,  346,  345, 1805, 1806, 1777, 1776
 115,  375,  376,  347,  346, 1806, 1807, 1778, 1777
 116,  376,  377,  348,  347, 1807, 1808, 1779, 1778
 117,  377,  378,  349,  348, 1808, 1809, 1780, 1779
 118,  378,  379,  350,  349, 1809, 1810, 1781, 1780
 119,  379,  380,  351,  350, 1810, 1811, 1782, 1781
 120,  380,   41,   40,  351, 1811, 1472, 1471, 1782
 121,  120,  381,  352,  121, 1551, 1812, 1783, 1552
 122,  381,  382,  353,  352, 1812, 1813, 1784, 1783
 123,  382,  383,  354,  353, 1813, 1814, 1785, 1784
 124,  383,  384,  355,  354, 1814, 1815, 1786, 1785
 125,  384,  385,  356,  355, 1815, 1816, 1787, 1786
 126,  385,  386,  357,  356, 1816, 1817, 1788, 1787
 127,  386,  387,  358,  357, 1817, 1818, 1789, 1788
 128,  387,  388,  359,  358, 1818, 1819, 1790, 1789
 129,  388,  389,  360,  359, 1819, 1820, 1791, 1790
 130,  389,  390,  361,  360, 1820, 1821, 1792, 1791
 131,  390,  391,  362,  361, 1821, 1822, 1793, 1792
 132,  391,  392,  363,  362, 1822, 1823, 1794, 1793
 133,  392,  393,  364,  363, 1823, 1824, 1795, 1794
 134,  393,  394,  365,  364, 1824, 1825, 1796, 1795
 135,  394,  395,  366,  365, 1825, 1826, 1797, 1796
 136,  395,  396,  367,  366, 1826, 1827, 1798, 1797
 137,  396,  397,  368,  367, 1827, 1828, 1799, 1798
 138,  397,  398,  369,  368, 1828, 1829, 1800, 1799
 139,  398,  399,  370,  369, 1829, 1830, 1801, 1800
 140,  399,  400,  371,  370, 1830, 1831, 1802, 1801
 141,  400,  401,  372,  371, 1831, 1832, 1803, 1802
 142,  401,  402,  373,  372, 1832, 1833, 1804, 1803
 143,  402,  403,  374,  373, 1833, 1834, 1805, 1804
 144,  403,  404,  375,  374, 1834, 1835, 1806, 1805
 145,  404,  405,  376,  375, 1835, 1836, 1807, 1806
 146,  405,  406,  377,  376, 1836, 1837, 1808, 1807
 147,  406,  407,  378,  377, 1837, 1838, 1809, 1808
 148,  407,  408,  379,  378, 1838, 1839, 1810, 1809
 149,  408,  409,  380,  379, 1839, 1840, 1811, 1810
 150,  409,   42,   41,  380, 1840, 1473, 1472, 1811
 151,  119,  410,  381,  120, 1550, 1841, 1812, 1551
 152,  410,  411,  382,  381, 1841, 1842, 1813, 1812
 153,  411,  412,  383,  382, 1842, 1843, 1814, 1813
 154,  412,  413,  384,  383, 1843, 1844, 1815, 1814
 155,  413,  414,  385,  384, 1844, 1845, 1816, 1815
 156,  414,  415,  386,  385, 1845, 1846, 1817, 1816
 157,  415,  416,  387,  386, 1846, 1847, 1818, 1817
 158,  416,  417,  388,  387, 1847, 1848, 1819, 1818
 159,  417,  418,  389,  388, 1848, 1849, 1820, 1819
 160,  418,  419,  390,  389, 1849, 1850, 1821, 1820
 161,  419,  420,  391,  390, 1850, 1851, 1822, 1821
 162,  420,  421,  392,  391, 1851, 1852, 1823, 1822
 163,  421,  422,  393,  392, 1852, 1853, 1824, 1823
 164,  422,  423,  394,  393, 1853, 1854, 1825, 1824
 165,  423,  424,  395,  394, 1854, 1855, 1826, 1825
 166,  424,  425,  396,  395, 1855, 1856, 1827, 1826
 167,  425,  426,  397,  396, 1856, 1857, 1828, 1827
 168,  426,  427,  398,  397, 1857, 1858, 1829, 1828
 169,  427,  428,  399,  398, 1858, 1859, 1830, 1829
 170,  428,  429,  400,  399, 1859, 1860, 1831, 1830
 171,  429,  430,  401,  400, 1860, 1861, 1832, 1831
 172,  430,  431,  402,  401, 1861, 1862, 1833, 1832
 173,  431,  432,  403,  402, 1862, 1863, 1834, 1833
 174,  432,  433,  404,  403, 1863, 1864, 1835, 1834
 175,  433,  434,  405,  404, 1864, 1865, 1836, 1835
 176,  434,  435,  406,  405, 1865, 1866, 1837, 1836
 177,  435,  436,  407,  406, 1866, 1867, 1838, 1837
 178,  436,  437,  408,  407, 1867, 1868, 1839, 1838
 179,  437,  438,  409,  408, 1868, 1869, 1840, 1839
 180,  438,   43,   42,  409, 1869, 1474, 1473, 1840
 181,  118,  439,  410,  119, 1549, 1870, 1841, 1550
 182,  439,  440,  411,  410, 1870, 1871, 1842, 1841
 183,  440,  441,  412,  411, 1871, 1872, 1843, 1842
 184,  441,  442,  413,  412, 1872, 1873, 1844, 1843
 185,  442,  443,  414,  413, 1873, 1874, 1845, 1844
 186,  443,  444,  415,  414, 1874, 1875, 1846, 1845
 187,  444,  445,  416,  415, 1875, 1876, 1847, 1846
 188,  445,  446,  417,  416, 1876, 1877, 1848, 1847
 189,  446,  447,  418,  417, 1877, 1878, 1849, 1848
 190,  447,  448,  419,  418, 1878, 1879, 1850, 1849
 191,  448,  449,  420,  419, 1879, 1880, 1851, 1850
 192,  449,  450,  421,  420, 1880, 1881, 1852, 1851
 193,  450,  451,  422,  421, 1881, 1882, 1853, 1852
 194,  451,  452,  423,  422, 1882, 1883, 1854, 1853
 195,  452,  453,  424,  423, 1883, 1884, 1855, 1854
 196,  453,  454,  425,  424, 1884, 1885, 1856, 1855
 197,  454,  455,  426,  425, 1885, 1886, 1857, 1856
 198,  455,  456,  427,  426, 1886, 1887, 1858, 1857
 199,  456,  457,  428,  427, 1887, 1888, 1859, 1858
 200,  457,  458,  429,  428, 1888, 1889, 1860, 1859
 201,  458,  459,  430,  429, 1889, 1890, 1861, 1860
 202,  459,  460,  431,  430, 1890, 1891, 1862, 1861
 203,  460,  461,  432,  431, 1891, 1892, 1863, 1862
 204,  461,  462,  433,  432, 1892, 1893, 1864, 1863
 205,  462,  463,  434,  433, 1893, 1894, 1865, 1864
 206,  463,  464,  435,  434, 1894, 1895, 1866, 1865
 207,  464,  465,  436,  435, 1895, 1896, 1867, 1866
 208,  465,  466,  437,  436, 1896, 1897, 1868, 1867
 209,  466,  467,  438,  437, 1897, 1898, 1869, 1868
 210,  467,   44,   43,  438, 1898, 1475, 1474, 1869
 211,  117,  468,  439,  118, 1548, 1899, 1870, 1549
 212,  468,  469,  440,  439, 1899, 1900, 1871, 1870
 213,  469,  470,  441,  440, 1900, 1901, 1872, 1871
 214,  470,  471,  442,  441, 1901, 1902, 1873, 1872
 215,  471,  472,  443,  442, 1902, 1903, 1874, 1873
 216,  472,  473,  444,  443, 1903, 1904, 1875, 1874
 217,  473,  474,  445,  444, 1904, 1905, 1876, 1875
 218,  474,  475,  446,  445, 1905, 1906, 1877, 1876
 219,  475,  476,  447,  446, 1906, 1907, 1878, 1877
 220,  476,  477,  448,  447, 1907, 1908, 1879, 1878
 221,  477,  478,  449,  448, 1908, 1909, 1880, 1879
 222,  478,  479,  450,  449, 1909, 1910, 1881, 1880
 223,  479,  480,  451,  450, 1910, 1911, 1882, 1881
 224,  480,  481,  452,  451, 1911, 1912, 1883, 1882
 225,  481,  482,  453,  452, 1912, 1913, 1884, 1883
 226,  482,  483,  454,  453, 1913, 1914, 1885, 1884
 227,  483,  484,  455,  454, 1914, 1915, 1886, 1885
 228,  484,  485,  456,  455, 1915, 1916, 1887, 1886
 229,  485,  486,  457,  456, 1916, 1917, 1888, 1887
 230,  486,  487,  458,  457, 1917, 1918, 1889, 1888
 231,  487,  488,  459,  458, 1918, 1919, 1890, 1889
 232,  488,  489,  460,  459, 1919, 1920, 1891, 1890
 233,  489,  490,  461,  460, 1920, 1921, 1892, 1891
 234,  490,  491,  462,  461, 1921, 1922, 1893, 1892
 235,  491,  492,  463,  462, 1922, 1923, 1894, 1893
 236,  492,  493,  464,  463, 1923, 1924, 1895, 1894
 237,  493,  494,  465,  464, 1924, 1925, 1896, 1895
 238,  494,  495,  466,  465, 1925, 1926, 1897, 1896
 239,  495,  496,  467,  466, 1926, 1927, 1898, 1897
 240,  496,   45,   44,  467, 1927, 1476, 1475, 1898
 241,  116,  497,  468,  117, 1547, 1928, 1899, 1548
 242,  497,  498,  469,  468, 1928, 1929, 1900, 1899
 243,  498,  499,  470,  469, 1929, 1930, 1901, 1900
 244,  499,  500,  471,  470, 1930, 1931, 1902, 1901
 245,  500,  501,  472,  471, 1931, 1932, 1903, 1902
 246,  501,  502,  473,  472, 1932, 1933, 1904, 1903
 247,  502,  503,  474,  473, 1933, 1934, 1905, 1904
 248,  503,  504,  475,  474, 1934, 1935, 1906, 1905
 249,  504,  505,  476,  475, 1935, 1936, 1907, 1906
 250,  505,  506,  477,  476, 1936, 1937, 1908, 1907
 251,  506,  507,  478,  477, 1937, 1938, 1909, 1908
 252,  507,  508,  479,  478, 1938, 1939, 1910, 1909
 253,  508,  509,  480,  479, 1939, 1940, 1911, 1910
 254,  509,  510,  481,  480, 1940, 1941, 1912, 1911
 255,  510,  511,  482,  481, 1941, 1942, 1913, 1912
 256,  511,  512,  483,  482, 1942, 1943, 1914, 1913
 257,  512,  513,  484,  483, 1943, 1944, 1915, 1914
 258,  513,  514,  485,  484, 1944, 1945, 1916, 1915
 259,  514,  515,  486,  485, 1945, 1946, 1917, 1916
 260,  515,  516,  487,  486, 1946, 1947, 1918, 1917
 261,  516,  517,  488,  487, 1947, 1948, 1919, 1918
 262,  517,  518,  489,  488, 1948, 1949, 1920, 1919
 263,  518,  519,  490,  489, 1949, 1950, 1921, 1920
 264,  519,  520,  491,  490, 1950, 1951, 1922, 1921
 265,  520,  521,  492,  491, 1951, 1952, 1923, 1922
 266,  521,  522,  493,  492, 1952, 1953, 1924, 1923
 267,  522,  523,  494,  493, 1953, 1954, 1925, 1924
 268,  523,  524,  495,  494, 1954, 1955, 1926, 1925
 269,  524,  525,  496,  495, 1955, 1956, 1927, 1926
 270,  525,   46,   45,  496, 1956, 1477, 1476, 1927
 271,  115,  526,  497,  116, 1546, 1957, 1928, 1547
 272,  526,  527,  498,  497, 1957, 1958, 1929, 1928
 273,  527,  528,  499,  498, 1958, 1959, 1930, 1929
 274,  528,  529,  500,  499, 1959, 1960, 1931, 1930
 275,  529,  530,  501,  500, 1960, 1961, 1932, 1931
 276,  530,  531,  502,  501, 1961, 1962, 1933, 1932
 277,  531,  532,  503,  502, 1962, 1963, 1934, 1933
 278,  532,  533,  504,  503, 1963, 1964, 1935, 1934
 279,  533,  534,  505,  504, 1964, 1965, 1936, 1935
 280,  534,  535,  506,  505, 1965, 1966, 1937, 1936
 281,  535,  536,  507,  506, 1966, 1967, 1938, 1937
 282,  536,  537,  508,  507, 1967, 1968, 1939, 1938
 283,  537,  538,  509,  508, 1968, 1969, 1940, 1939
 284,  538,  539,  510,  509, 1969, 1970, 1941, 1940
 285,  539,  540,  511,  510, 1970, 1971, 1942, 1941
 286,  540,  541,  512,  511, 1971, 1972, 1943, 1942
 287,  541,  542,  513,  512, 1972, 1973, 1944, 1943
 288,  542,  543,  514,  513, 1973, 1974, 1945, 1944
 289,  543,  544,  515,  514, 1974, 1975, 1946, 1945
 290,  544,  545,  516,  515, 1975, 1976, 1947, 1946
 291,  545,  546,  517,  516, 1976, 1977, 1948, 1947
 292,  546,  547,  518,  517, 1977, 1978, 1949, 1948
 293,  547,  548,  519,  518, 1978, 1979, 1950, 1949
 294,  548,  549,  520,  519, 1979, 1980, 1951, 1950
 295,  549,  550,  521,  520, 1980, 1981, 1952, 1951
 296,  550,  551,  522,  521, 1981, 1982, 1953, 1952
 297,  551,  552,  523,  522, 1982, 1983, 1954, 1953
 298,  552,  553,  524,  523, 1983, 1984, 1955, 1954
 299,  553,  554,  525,  524, 1984, 1985, 1956, 1955
 300,  554,   47,   46,  525, 1985, 1478, 1477, 1956
 301,  114,  555,  526,  115, 1545, 1986, 1957, 1546
 302,  555,  556,  527,  526, 1986, 1987, 1958, 1957
 303,  556,  557,  528,  527, 1987, 1988, 1959, 1958
 304,  557,  558,  529,  528, 1988, 1989, 1960, 1959
 305,  558,  559,  530,  529, 1989, 1990, 1961, 1960
 306,  559,  560,  531,  530, 1990, 1991, 1962, 1961
 307,  560,  561,  532,  531, 1991, 1992, 1963, 1962
 308,  561,  562,  533,  532, 1992, 1993, 1964, 1963
 309,  562,  563,  534,  533, 1993, 1994, 1965, 1964
 310,  563,  564,  535,  534, 1994, 1995, 1966, 1965
 311,  564,  565,  536,  535, 1995, 1996, 1967, 1966
 312,  565,  566,  537,  536, 1996, 1997, 1968, 1967
 313,  566,  567,  538,  537, 1997, 1998, 1969, 1968
 314,  567,  568,  539,  538, 1998, 1999, 1970, 1969
 315,  568,  569,  540,  539, 1999, 2000, 1971, 1970
 316,  569,  570,  541,  540, 2000, 2001, 1972, 1971
 317,  570,  571,  542,  541, 2001, 2002, 1973, 1972
 318,  571,  572,  543,  542, 2002, 2003, 1974, 1973
 319,  572,  573,  544,  543, 2003, 2004, 1975, 1974
 320,  573,  574,  545,  544, 2004, 2005, 1976, 1975
 321,  574,  575,  546,  545, 2005, 2006, 1977, 1976
 322,  575,  576,  547,  546, 2006, 2007, 1978, 1977
 323,  576,  577,  548,  547, 2007, 2008, 1979, 1978
 324,  577,  578,  549,  548, 2008, 2009, 1980, 1979
 325,  578,  579,  550,  549, 2009, 2010, 1981, 1980
 326,  579,  580,  551,  550, 2010, 2011, 1982, 1981
 327,  580,  581,  552,  551, 2011, 2012, 1983, 1982
 328,  581,  582,  553,  552, 2012, 2013, 1984, 1983
 329,  582,  583,  554,  553, 2013, 2014, 1985, 1984
 330,  583,   48,   47,  554, 2014, 1479, 1478, 1985
 331,  113,  584,  555,  114, 1544, 2015, 1986, 1545
 332,  584,  585,  556,  555, 2015, 2016, 1987, 1986
 333,  585,  586,  557,  556, 2016, 2017, 1988, 1987
 334,  586,  587,  558,  557, 2017, 2018, 1989, 1988
 335,  587,  588,  559,  558, 2018, 2019, 1990, 1989
 336,  588,  589,  560,  559, 2019, 2020, 1991, 1990
 337,  589,  590,  561,  560, 2020, 2021, 1992, 1991
 338,  590,  591,  562,  561, 2021, 2022, 1993, 1992
 339,  591,  592,  563,  562, 2022, 2023, 1994, 1993
 340,  592,  593,  564,  563, 2023, 2024, 1995, 1994
 341,  593,  594,  565,  564, 2024, 2025, 1996, 1995
 342,  594,  595,  566,  565, 2025, 2026, 1997, 1996
 343,  595,  596,  567,  566, 2026, 2027, 1998, 1997
 344,  596,  597,  568,  567, 2027, 2028, 1999, 1998
 345,  597,  598,  569,  568, 2028, 2029, 2000, 1999
 346,  598,  599,  570,  569, 2029, 2030, 2001, 2000
 347,  599,  600,  571,  570, 2030, 2031, 2002, 2001
 348,  600,  601,  572,  571, 2031, 2032, 2003, 2002
 349,  601,  602,  573,  572, 2032, 2033, 2004, 2003
 350,  602,  603,  574,  573, 2033, 2034, 2005, 2004
 351,  603,  604,  575,  574, 2034, 2035, 2006, 2005
 352,  604,  605,  576,  575, 2035, 2036, 2007, 2006
 353,  605,  606,  577,  576, 2036, 2037, 2008, 2007
 354,  606,  607,  578,  577, 2037, 2038, 2009, 2008
 355,  607,  608,  579,  578, 2038, 2039, 2010, 2009
 356,  608,  609,  580,  579, 2039, 2040, 2011, 2010
 357,  609,  610,  581,  580, 2040, 2041, 2012, 2011
 358,  610,  611,  582,  581, 2041, 2042, 2013, 2012
 359,  611,  612,  583,  582, 2042, 2043, 2014, 2013
 360,  612,   49,   48,  583, 2043, 1480, 1479, 2014
 361,  112,  613,  584,  113, 1543, 2044, 2015, 1544
 362,  613,  614,  585,  584, 2044, 2045, 2016, 2015
 363,  614,  615,  586,  585, 2045, 2046, 2017, 2016
 364,  615,  616,  587,  586, 2046, 2047, 2018, 2017
 365,  616,  617,  588,  587, 2047, 2048, 2019, 2018
 366,  617,  618,  589,  588, 2048, 2049, 2020, 2019
 367,  618,  619,  590,  589, 2049, 2050, 2021, 2020
 368,  619,  620,  591,  590, 2050, 2051, 2022, 2021
 369,  620,  621,  592,  591, 2051, 2052, 2023, 2022
 370,  621,  622,  593,  592, 2052, 2053, 2024, 2023
 371,  622,  623,  594,  593, 2053, 2054, 2025, 2024
 372,  623,  624,  595,  594, 2054, 2055, 2026, 2025
 373,  624,  625,  596,  595, 2055, 2056, 2027, 2026
 374,  625,  626,  597,  596, 2056, 2057, 2028, 2027
 375,  626,  627,  598,  597, 2057, 2058, 2029, 2028
 376,  627,  628,  599,  598, 2058, 2059, 2030, 2029
 377,  628,  629,  600,  599, 2059, 2060, 2031, 2030
 378,  629,  630,  601,  600, 2060, 2061, 2032, 2031
 379,  630,  631,  602,  601, 2061, 2062, 2033, 2032
 380,  631,  632,  603,  602, 2062, 2063, 2034, 2033
 381,  632,  633,  604,  603, 2063, 2064, 2035, 2034
 382,  633,  634,  605,  604, 2064, 2065, 2036, 2035
 383,  634,  635,  606,  605, 2065, 2066, 2037, 2036
 384,  635,  636,  607,  606, 2066, 2067, 2038, 2037
 385,  636,  637,  608,  607, 2067, 2068, 2039, 2038
 386,  637,  638,  609,  608, 2068, 2069, 2040, 2039
 387,  638,  639,  610,  609, 2069, 2070, 2041, 2040
 388,  639,  640,  611,  610, 2070, 2071, 2042, 2041
 389,  640,  641,  612,  611, 2071, 2072, 2043, 2042
 390,  641,   50,   49,  612, 2072, 1481, 1480, 2043
 391,  111,  642,  613,  112, 1542, 2073, 2044, 1543
 392,  642,  643,  614,  613, 2073, 2074, 2045, 2044
 393,  643,  644,  615,  614, 2074, 2075, 2046, 2045
 394,  644,  645,  616,  615, 2075, 2076, 2047, 2046
 395,  645,  646,  617,  616, 2076, 2077, 2048, 2047
 396,  646,  647,  618,  617, 2077, 2078, 2049, 2048
 397,  647,  648,  619,  618, 2078, 2079, 2050, 2049
 398,  648,  649,  620,  619, 2079, 2080, 2051, 2050
 399,  649,  650,  621,  620, 2080, 2081, 2052, 2051
 400,  650,  651,  622,  621, 2081, 2082, 2053, 2052
 401,  651,  652,  623,  622, 2082, 2083, 2054, 2053
 402,  652,  653,  624,  623, 2083, 2084, 2055, 2054
 403,  653,  654,  625,  624, 2084, 2085, 2056, 2055
 404,  654,  655,  626,  625, 2085, 2086, 2057, 2056
 405,  655,  656,  627,  626, 2086, 2087, 2058, 2057
 406,  656,  657,  628,  627, 2087, 2088, 2059, 2058
 407,  657,  658,  629,  628, 2088, 2089, 2060, 2059
 408,  658,  659,  630,  629, 2089, 2090, 2061, 2060
 409,  659,  660,  631,  630, 2090, 2091, 2062, 2061
 410,  660,  661,  632,  631, 2091, 2092, 2063, 2062
 411,  661,  662,  633,  632, 2092, 2093, 2064, 2063
 412,  662,  663,  634,  633, 2093, 2094, 2065, 2064
 413,  663,  664,  635,  634, 2094, 2095, 2066, 2065
 414,  664,  665,  636,  635, 2095, 2096, 2067, 2066
 415,  665,  666,  637,  636, 2096, 2097, 2068, 2067
 416,  666,  667,  638,  637, 2097, 2098, 2069, 2068
 417,  667,  668,  639,  638, 2098, 2099, 2070, 2069
 418,  668,  669,  640,  639, 2099, 2100, 2071, 2070
 419,  669,  670,  641,  640, 2100, 2101, 2072, 2071
 420,  670,   51,   50,  641, 2101, 1482, 1481, 2072
 421,  110,  671,  642,  111, 1541, 2102, 2073, 1542
 422,  671,  672,  643,  642, 2102, 2103, 2074, 2073
 423,  672,  673,  644,  643, 2103, 2104, 2075, 2074
 424,  673,  674,  645,  644, 2104, 2105, 2076, 2075
 425,  674,  675,  646,  645, 2105, 2106, 2077, 2076
 426,  675,  676,  647,  646, 2106, 2107, 2078, 2077
 427,  676,  677,  648,  647, 2107, 2108, 2079, 2078
 428,  677,  678,  649,  648, 2108, 2109, 2080, 2079
 429,  678,  679,  650,  649, 2109, 2110, 2081, 2080
 430,  679,  680,  651,  650, 2110, 2111, 2082, 2081
 431,  680,  681,  652,  651, 2111, 2112, 2083, 2082
 432,  681,  682,  653,  652, 2112, 2113, 2084, 2083
 433,  682,  683,  654,  653, 2113, 2114, 2085, 2084
 434,  683,  684,  655,  654, 2114, 2115, 2086, 2085
 435,  684,  685,  656,  655, 2115, 2116, 2087, 2086
 436,  685,  686,  657,  656, 2116, 2117, 2088, 2087
 437,  686,  687,  658,  657, 2117, 2118, 2089, 2088
 438,  687,  688,  659,  658, 2118, 2119, 2090, 2089
 439,  688,  689,  660,  659, 2119, 2120, 2091, 2090
 440,  689,  690,  661,  660, 2120, 2121, 2092, 2091
 441,  690,  691,  662,  661, 2121, 2122, 2093, 2092
 442,  691,  692,  663,  662, 2122, 2123, 2094, 2093
 443,  692,  693,  664,  663, 2123, 2124, 2095, 2094
 444,  693,  694,  665,  664, 2124, 2125, 2096, 2095
 445,  694,  695,  666,  665, 2125, 2126, 2097, 2096
 446,  695,  696,  667,  666, 2126, 2127, 2098, 2097
 447,  696,  697,  668,  667, 2127, 2128, 2099, 2098
 448,  697,  698,  669,  668, 2128, 2129, 2100, 2099
 449,  698,  699,  670,  669, 2129, 2130, 2101, 2100
 450,  699,   52,   51,  670, 2130, 1483, 1482, 2101
 451,  109,  700,  671,  110, 1540, 2131, 2102, 1541
 452,  700,  701,  672,  671, 2131, 2132, 2103, 2102
 453,  701,  702,  673,  672, 2132, 2133, 2104, 2103
 454,  702,  703,  674,  673, 2133, 2134, 2105, 2104
 455,  703,  704,  675,  674, 2134, 2135, 2106, 2105
 456,  704,  705,  676,  675, 2135, 2136, 2107, 2106
 457,  705,  706,  677,  676, 2136, 2137, 2108, 2107
 458,  706,  707,  678,  677, 2137, 2138, 2109, 2108
 459,  707,  708,  679,  678, 2138, 2139, 2110, 2109
 460,  708,  709,  680,  679, 2139, 2140, 2111, 2110
 461,  709,  710,  681,  680, 2140, 2141, 2112, 2111
 462,  710,  711,  682,  681, 2141, 2142, 2113, 2112
 463,  711,  712,  683,  682, 2142, 2143, 2114, 2113
 464,  712,  713,  684,  683, 2143, 2144, 2115, 2114
 465,  713,  714,  685,  684, 2144, 2145, 2116, 2115
 466,  714,  715,  686,  685, 2145, 2146, 2117, 2116
 467,  715,  716,  687,  686, 2146, 2147, 2118, 2117
 468,  716,  717,  688,  687, 2147, 2148, 2119, 2118
 469,  717,  718,  689,  688, 2148, 2149, 2120, 2119
 470,  718,  719,  690,  689, 2149, 2150, 2121, 2120
 471,  719,  720,  691,  690, 2150, 2151, 2122, 2121
 472,  720,  721,  692,  691, 2151, 2152, 2123, 2122
 473,  721,  722,  693,  692, 2152, 2153, 2124, 2123
 474,  722,  723,  694,  693, 2153, 2154, 2125, 2124
 475,  723,  724,  695,  694, 2154, 2155, 2126, 2125
 476,  724,  725,  696,  695, 2155, 2156, 2127, 2126
 477,  725,  726,  697,  696, 2156, 2157, 2128, 2127
 478,  726,  727,  698,  697, 2157, 2158, 2129, 2128
 479,  727,  728,  699,  698, 2158, 2159, 2130, 2129
 480,  728,   53,   52,  699, 2159, 1484, 1483, 2130
 481,  108,  729,  700,  109, 1539, 2160, 2131, 1540
 482,  729,  730,  701,  700, 2160, 2161, 2132, 2131
 483,  730,  731,  702,  701, 2161, 2162, 2133, 2132
 484,  731,  732,  703,  702, 2162, 2163, 2134, 2133
 485,  732,  733,  704,  703, 2163, 2164, 2135, 2134
 486,  733,  734,  705,  704, 2164, 2165, 2136, 2135
 487,  734,  735,  706,  705, 2165, 2166, 2137, 2136
 488,  735,  736,  707,  706, 2166, 2167, 2138, 2137
 489,  736,  737,  708,  707, 2167, 2168, 2139, 2138
 490,  737,  738,  709,  708, 2168, 2169, 2140, 2139
 491,  738,  739,  710,  709, 2169, 2170, 2141, 2140
 492,  739,  740,  711,  710, 2170, 2171, 2142, 2141
 493,  740,  741,  712,  711, 2171, 2172, 2143, 2142
 494,  741,  742,  713,  712, 2172, 2173, 2144, 2143
 495,  742,  743,  714,  713, 2173, 2174, 2145, 2144
 496,  743,  744,  715,  714, 2174, 2175, 2146, 2145
 497,  744,  745,  716,  715, 2175, 2176, 2147, 2146
 498,  745,  746,  717,  716, 2176, 2177, 2148, 2147
 499,  746,  747,  718,  717, 2177, 2178, 2149, 2148
 500,  747,  748,  719,  718, 2178, 2179, 2150, 2149
 501,  748,  749,  720,  719, 2179, 2180, 2151, 2150
 502,  749,  750,  721,  720, 2180, 2181, 2152, 2151
 503,  750,  751,  722,  721, 2181, 2182, 2153, 2152
 504,  751,  752,  723,  722, 2182, 2183, 2154, 2153
 505,  752,  753,  724,  723, 2183, 2184, 2155, 2154
 506,  753,  754,  725,  724, 2184, 2185, 2156, 2155
 507,  754,  755,  726,  725, 2185, 2186, 2157, 2156
 508,  755,  756,  727,  726, 2186, 2187, 2158, 2157
 509,  756,  757,  728,  727, 2187, 2188, 2159, 2158
 510,  757,   54,   53,  728, 2188, 1485, 1484, 2159
 511,  107,  758,  729,  108, 1538, 2189, 2160, 1539
 512,  758,  759,  730,  729, 2189, 2190, 2161, 2160
 513,  759,  760,  731,  730, 2190, 2191, 2162, 2161
 514,  760,  761,  732,  731, 2191, 2192, 2163, 2162
 515,  761,  762,  733,  732, 2192, 2193, 2164, 2163
 516,  762,  763,  734,  733, 2193, 2194, 2165, 2164
 517,  763,  764,  735,  734, 2194, 2195, 2166, 2165
 518,  764,  765,  736,  735, 2195, 2196, 2167, 2166
 519,  765,  766,  737,  736, 2196, 2197, 2168, 2167
 520,  766,  767,  738,  737, 2197, 2198, 2169, 2168
 521,  767,  768,  739,  738, 2198, 2199, 2170, 2169
 522,  768,  769,  740,  739, 2199, 2200, 2171, 2170
 523,  769,  770,  741,  740, 2200, 2201, 2172, 2171
 524,  770,  771,  742,  741, 2201, 2202, 2173, 2172
 525,  771,  772,  743,  742, 2202, 2203, 2174, 2173
 526,  772,  773,  744,  743, 2203, 2204, 2175, 2174
 527,  773,  774,  745,  744, 2204, 2205, 2176, 2175
 528,  774,  775,  746,  745, 2205, 2206, 2177, 2176
 529,  775,  776,  747,  746, 2206, 2207, 2178, 2177
 530,  776,  777,  748,  747, 2207, 2208, 2179, 2178
 531,  777,  778,  749,  748, 2208, 2209, 2180, 2179
 532,  778,  779,  750,  749, 2209, 2210, 2181, 2180
 533,  779,  780,  751,  750, 2210, 2211, 2182, 2181
 534,  780,  781,  752,  751, 2211, 2212, 2183, 2182
 535,  781,  782,  753,  752, 2212, 2213, 2184, 2183
 536,  782,  783,  754,  753, 2213, 2214, 2185, 2184
 537,  783,  784,  755,  754, 2214, 2215, 2186, 2185
 538,  784,  785,  756,  755, 2215, 2216, 2187, 2186
 539,  785,  786,  757,  756, 2216, 2217, 2188, 2187
 540,  786,   55,   54,  757, 2217, 1486, 1485, 2188
 541,  106,  787,  758,  107, 1537, 2218, 2189, 1538
 542,  787,  788,  759,  758, 2218, 2219, 2190, 2189
 543,  788,  789,  760,  759, 2219, 2220, 2191, 2190
 544,  789,  790,  761,  760, 2220, 2221, 2192, 2191
 545,  790,  791,  762,  761, 2221, 2222, 2193, 2192
 546,  791,  792,  763,  762, 2222, 2223, 2194, 2193
 547,  792,  793,  764,  763, 2223, 2224, 2195, 2194
 548,  793,  794,  765,  764, 2224, 2225, 2196, 2195
 549,  794,  795,  766,  765, 2225, 2226, 2197, 2196
 550,  795,  796,  767,  766, 2226, 2227, 2198, 2197
 551,  796,  797,  768,  767, 2227, 2228, 2199, 2198
 552,  797,  798,  769,  768, 2228, 2229, 2200, 2199
 553,  798,  799,  770,  769, 2229, 2230, 2201, 2200
 554,  799,  800,  771,  770, 2230, 2231, 2202, 2201
 555,  800,  801,  772,  771, 2231, 2232, 2203, 2202
 556,  801,  802,  773,  772, 2232, 2233, 2204, 2203
 557,  802,  803,  774,  773, 2233, 2234, 2205, 2204
 558,  803,  804,  775,  774, 2234, 2235, 2206, 2205
 559,  804,  805,  776,  775, 2235, 2236, 2207, 2206
 560,  805,  806,  777,  776, 2236, 2237, 2208, 2207
 561,  806,  807,  778,  777, 2237, 2238, 2209, 2208
 562,  807,  808,  779,  778, 2238, 2239, 2210, 2209
 563,  808,  809,  780,  779, 2239, 2240, 2211, 2210
 564,  809,  810,  781,  780, 2240, 2241, 2212, 2211
 565,  810,  811,  782,  781, 2241, 2242, 2213, 2212
 566,  811,  812,  783,  782, 2242, 2243, 2214, 2213
 567,  812,  813,  784,  783, 2243, 2244, 2215, 2214
 568,  813,  814,  785,  784, 2244, 2245, 2216, 2215
 569,  814,  815,  786,  785, 2245, 2246, 2217, 2216
 570,  815,   56,   55,  786, 2246, 1487, 1486, 2217
 571,  105,  816,  787,  106, 1536, 2247, 2218, 1537
 572,  816,  817,  788,  787, 2247, 2248, 2219, 2218
 573,  817,  818,  789,  788, 2248, 2249, 2220, 2219
 574,  818,  819,  790,  789, 2249, 2250, 2221, 2220
 575,  819,  820,  791,  790, 2250, 2251, 2222, 2221
 576,  820,  821,  792,  791, 2251, 2252, 2223, 2222
 577,  821,  822,  793,  792, 2252, 2253, 2224, 2223
 578,  822,  823,  794,  793, 2253, 2254, 2225, 2224
 579,  823,  824,  795,  794, 2254, 2255, 2226, 2225
 580,  824,  825,  796,  795, 2255, 2256, 2227, 2226
 581,  825,  826,  797,  796, 2256, 2257, 2228, 2227
 582,  826,  827,  798,  797, 2257, 2258, 2229, 2228
 583,  827,  828,  799,  798, 2258, 2259, 2230, 2229
 584,  828,  829,  800,  799, 2259, 2260, 2231, 2230
 585,  829,  830,  801,  800, 2260, 2261, 2232, 2231
 586,  830,  831,  802,  801, 2261, 2262, 2233, 2232
 587,  831,  832,  803,  802, 2262, 2263, 2234, 2233
 588,  832,  833,  804,  803, 2263, 2264, 2235, 2234
 589,  833,  834,  805,  804, 2264, 2265, 2236, 2235
 590,  834,  835,  806,  805, 2265, 2266, 2237, 2236
 591,  835,  836,  807,  806, 2266, 2267, 2238, 2237
 592,  836,  837,  808,  807, 2267, 2268, 2239, 2238
 593,  837,  838,  809,  808, 2268, 2269, 2240, 2239
 594,  838,  839,  810,  809, 2269, 2270, 2241, 2240
 595,  839,  840,  811,  810, 2270, 2271, 2242, 2241
 596,  840,  841,  812,  811, 2271, 2272, 2243, 2242
 597,  841,  842,  813,  812, 2272, 2273, 2244, 2243
 598,  842,  843,  814,  813, 2273, 2274, 2245, 2244
 599,  843,  844,  815,  814, 2274, 2275, 2246, 2245
 600,  844,   57,   56,  815, 2275, 1488, 1487, 2246
 601,  104,  845,  816,  105, 1535, 2276, 2247, 1536
 602,  845,  846,  817,  816, 2276, 2277, 2248, 2247
 603,  846,  847,  818,  817, 2277, 2278, 2249, 2248
 604,  847,  848,  819,  818, 2278, 2279, 2250, 2249
 605,  848,  849,  820,  819, 2279, 2280, 2251, 2250
 606,  849,  850,  821,  820, 2280, 2281, 2252, 2251
 607,  850,  851,  822,  821, 2281, 2282, 2253, 2252
 608,  851,  852,  823,  822, 2282, 2283, 2254, 2253
 609,  852,  853,  824,  823, 2283, 2284, 2255, 2254
 610,  853,  854,  825,  824, 2284, 2285, 2256, 2255
 611,  854,  855,  826,  825, 2285, 2286, 2257, 2256
 612,  855,  856,  827,  826, 2286, 2287, 2258, 2257
 613,  856,  857,  828,  827, 2287, 2288, 2259, 2258
 614,  857,  858,  829,  828, 2288, 2289, 2260, 2259
 615,  858,  859,  830,  829, 2289, 2290, 2261, 2260
 616,  859,  860,  831,  830, 2290, 2291, 2262, 2261
 617,  860,  861,  832,  831, 2291, 2292, 2263, 2262
 618,  861,  862,  833,  832, 2292, 2293, 2264, 2263
 619,  862,  863,  834,  833, 2293, 2294, 2265, 2264
 620,  863,  864,  835,  834, 2294, 2295, 2266, 2265
 621,  864,  865,  836,  835, 2295, 2296, 2267, 2266
 622,  865,  866,  837,  836, 2296, 2297, 2268, 2267
 623,  866,  867,  838,  837, 2297, 2298, 2269, 2268
 624,  867,  868,  839,  838, 2298, 2299, 2270, 2269
 625,  868,  869,  840,  839, 2299, 2300, 2271, 2270
 626,  869,  870,  841,  840, 2300, 2301, 2272, 2271
 627,  870,  871,  842,  841, 2301, 2302, 2273, 2272
 628,  871,  872,  843,  842, 2302, 2303, 2274, 2273
 629,  872,  873,  844,  843, 2303, 2304, 2275, 2274
 630,  873,   58,   57,  844, 2304, 1489, 1488, 2275
 631,  103,  874,  845,  104, 1534, 2305, 2276, 1535
 632,  874,  875,  846,  845, 2305, 2306, 2277, 2276
 633,  875,  876,  847,  846, 2306, 2307, 2278, 2277
 634,  876,  877,  848,  847, 2307, 2308, 2279, 2278
 635,  877,  878,  849,  848, 2308, 2309, 2280, 2279
 636,  878,  879,  850,  849, 2309, 2310, 2281, 2280
 637,  879,  880,  851,  850, 2310, 2311, 2282, 2281
 638,  880,  881,  852,  851, 2311, 2312, 2283, 2282
 639,  881,  882,  853,  852, 2312, 2313, 2284, 2283
 640,  882,  883,  854,  853, 2313, 2314, 2285, 2284
 641,  883,  884,  855,  854, 2314, 2315, 2286, 2285
 642,  884,  885,  856,  855, 2315, 2316, 2287, 2286
 643,  885,  886,  857,  856, 2316, 2317, 2288, 2287
 644,  886,  887,  858,  857, 2317, 2318, 2289, 2288
 645,  887,  888,  859,  858, 2318, 2319, 2290, 2289
 646,  888,  889,  860,  859, 2319, 2320, 2291, 2290
 647,  889,  890,  861,  860, 2320, 2321, 2292, 2291
 648,  890,  891,  862,  861, 2321, 2322, 2293, 2292
 649,  891,  892,  863,  862, 2322, 2323, 2294, 2293
 650,  892,  893,  864,  863, 2323, 2324, 2295, 2294
 651,  893,  894,  865,  864, 2324, 2325, 2296, 2295
 652,  894,  895,  866,  865, 2325, 2326, 2297, 2296
 653,  895,  896,  867,  866, 2326, 2327, 2298, 2297
 654,  896,  897,  868,  867, 2327, 2328, 2299, 2298
 655,  897,  898,  869,  868, 2328, 2329, 2300, 2299
 656,  898,  899,  870,  869, 2329, 2330, 2301, 2300
 657,  899,  900,  871,  870, 2330, 2331, 2302, 2301
 658,  900,  901,  872,  871, 2331, 2332, 2303, 2302
 659,  901,  902,  873,  872, 2332, 2333, 2304, 2303
 660,  902,   59,   58,  873, 2333, 1490, 1489, 2304
 661,  102,  903,  874,  103, 1533, 2334, 2305, 1534
 662,  903,  904,  875,  874, 2334, 2335, 2306, 2305
 663,  904,  905,  876,  875, 2335, 2336, 2307, 2306
 664,  905,  906,  877,  876, 2336, 2337, 2308, 2307
 665,  906,  907,  878,  877, 2337, 2338, 2309, 2308
 666,  907,  908,  879,  878, 2338, 2339, 2310, 2309
 667,  908,  909,  880,  879, 2339, 2340, 2311, 2310
 668,  909,  910,  881,  880, 2340, 2341, 2312, 2311
 669,  910,  911,  882,  881, 2341, 2342, 2313, 2312
 670,  911,  912,  883,  882, 2342, 2343, 2314, 2313
 671,  912,  913,  884,  883, 2343, 2344, 2315, 2314
 672,  913,  914,  885,  884, 2344, 2345, 2316, 2315
 673,  914,  915,  886,  885, 2345, 2346, 2317, 2316
 674,  915,  916,  887,  886, 2346, 2347, 2318, 2317
 675,  916,  917,  888,  887, 2347, 2348, 2319, 2318
 676,  917,  918,  889,  888, 2348, 2349, 2320, 2319
 677,  918,  919,  890,  889, 2349, 2350, 2321, 2320
 678,  919,  920,  891,  890, 2350, 2351, 2322, 2321
 679,  920,  921,  892,  891, 2351, 2352, 2323, 2322
 680,  921,  922,  893,  892, 2352, 2353, 2324, 2323
 681,  922,  923,  894,  893, 2353, 2354, 2325, 2324
 682,  923,  924,  895,  894, 2354, 2355, 2326, 2325
 683,  924,  925,  896,  895, 2355, 2356, 2327, 2326
 684,  925,  926,  897,  896, 2356, 2357, 2328, 2327
 685,  926,  927,  898,  897, 2357, 2358, 2329, 2328
 686,  927,  928,  899,  898, 2358, 2359, 2330, 2329
 687,  928,  929,  900,  899, 2359, 2360, 2331, 2330
 688,  929,  930,  901,  900, 2360, 2361, 2332, 2331
 689,  930,  931,  902,  901, 2361, 2362, 2333, 2332
 690,  931,   60,   59,  902, 2362, 1491, 1490, 2333
 691,  101,  932,  903,  102, 1532, 2363, 2334, 1533
 692,  932,  933,  904,  903, 2363, 2364, 2335, 2334
 693,  933,  934,  905,  904, 2364, 2365, 2336, 2335
 694,  934,  935,  906,  905, 2365, 2366, 2337, 2336
 695,  935,  936,  907,  906, 2366, 2367, 2338, 2337
 696,  936,  937,  908,  907, 2367, 2368, 2339, 2338
 697,  937,  938,  909,  908, 2368, 2369, 2340, 2339
 698,  938,  939,  910,  909, 2369, 2370, 2341, 2340
 699,  939,  940,  911,  910, 2370, 2371, 2342, 2341
 700,  940,  941,  912,  911, 2371, 2372, 2343, 2342
 701,  941,  942,  913,  912, 2372, 2373, 2344, 2343
 702,  942,  943,  914,  913, 2373, 2374, 2345, 2344
 703,  943,  944,  915,  914, 2374, 2375, 2346, 2345
 704,  944,  945,  916,  915, 2375, 2376, 2347, 2346
 705,  945,  946,  917,  916, 2376, 2377, 2348, 2347
 706,  946,  947,  918,  917, 2377, 2378, 2349, 2348
 707,  947,  948,  919,  918, 2378, 2379, 2350, 2349
 708,  948,  949,  920,  919, 2379, 2380, 2351, 2350
 709,  949,  950,  921,  920, 2380, 2381, 2352, 2351
 710,  950,  951,  922,  921, 2381, 2382, 2353, 2352
 711,  951,  952,  923,  922, 2382, 2383, 2354, 2353
 712,  952,  953,  924,  923, 2383, 2384, 2355, 2354
 713,  953,  954,  925,  924, 2384, 2385, 2356, 2355
 714,  954,  955,  926,  925, 2385, 2386, 2357, 2356
 715,  955,  956,  927,  926, 2386, 2387, 2358, 2357
 716,  956,  957,  928,  927, 2387, 2388, 2359, 2358
 717,  957,  958,  929,  928, 2388, 2389, 2360, 2359
 718,  958,  959,  930,  929, 2389, 2390, 2361, 2360
 719,  959,  960,  931,  930, 2390, 2391, 2362, 2361
 720,  960,   61,   60,  931, 2391, 1492, 1491, 2362
 721,  100,  961,  932,  101, 1531, 2392, 2363, 1532
 722,  961,  962,  933,  932, 2392, 2393, 2364, 2363
 723,  962,  963,  934,  933, 2393, 2394, 2365, 2364
 724,  963,  964,  935,  934, 2394, 2395, 2366, 2365
 725,  964,  965,  936,  935, 2395, 2396, 2367, 2366
 726,  965,  966,  937,  936, 2396, 2397, 2368, 2367
 727,  966,  967,  938,  937, 2397, 2398, 2369, 2368
 728,  967,  968,  939,  938, 2398, 2399, 2370, 2369
 729,  968,  969,  940,  939, 2399, 2400, 2371, 2370
 730,  969,  970,  941,  940, 2400, 2401, 2372, 2371
 731,  970,  971,  942,  941, 2401, 2402, 2373, 2372
 732,  971,  972,  943,  942, 2402, 2403, 2374, 2373
 733,  972,  973,  944,  943, 2403, 2404, 2375, 2374
 734,  973,  974,  945,  944, 2404, 2405, 2376, 2375
 735,  974,  975,  946,  945, 2405, 2406, 2377, 2376
 736,  975,  976,  947,  946, 2406, 2407, 2378, 2377
 737,  976,  977,  948,  947, 2407, 2408, 2379, 2378
 738,  977,  978,  949,  948, 2408, 2409, 2380, 2379
 739,  978,  979,  950,  949, 2409, 2410, 2381, 2380
 740,  979,  980,  951,  950, 2410, 2411, 2382, 2381
 741,  980,  981,  952,  951, 2411, 2412, 2383, 2382
 742,  981,  982,  953,  952, 2412, 2413, 2384, 2383
 743,  982,  983,  954,  953, 2413, 2414, 2385, 2384
 744,  983,  984,  955,  954, 2414, 2415, 2386, 2385
 745,  984,  985,  956,  955, 2415, 2416, 2387, 2386
 746,  985,  986,  957,  956, 2416, 2417, 2388, 2387
 747,  986,  987,  958,  957, 2417, 2418, 2389, 2388
 748,  987,  988,  959,  958, 2418, 2419, 2390, 2389
 749,  988,  989,  960,  959, 2419, 2420, 2391, 2390
 750,  989,   62,   61,  960, 2420, 1493, 1492, 2391
 751,   99,  990,  961,  100, 1530, 2421, 2392, 1531
 752,  990,  991,  962,  961, 2421, 2422, 2393, 2392
 753,  991,  992,  963,  962, 2422, 2423, 2394, 2393
 754,  992,  993,  964,  963, 2423, 2424, 2395, 2394
 755,  993,  994,  965,  964, 2424, 2425, 2396, 2395
 756,  994,  995,  966,  965, 2425, 2426, 2397, 2396
 757,  995,  996,  967,  966, 2426, 2427, 2398, 2397
 758,  996,  997,  968,  967, 2427, 2428, 2399, 2398
 759,  997,  998,  969,  968, 2428, 2429, 2400, 2399
 760,  998,  999,  970,  969, 2429, 2430, 2401, 2400
 761,  999, 1000,  971,  970, 2430, 2431, 2402, 2401
 762, 1000, 1001,  972,  971, 2431, 2432, 2403, 2402
 763, 1001, 1002,  973,  972, 2432, 2433, 2404, 2403
 764, 1002, 1003,  974,  973, 2433, 2434, 2405, 2404
 765, 1003, 1004,  975,  974, 2434, 2435, 2406, 2405
 766, 1004, 1005,  976,  975, 2435, 2436, 2407, 2406
 767, 1005, 1006,  977,  976, 2436, 2437, 2408, 2407
 768, 1006, 1007,  978,  977, 2437, 2438, 2409, 2408
 769, 1007, 1008,  979,  978, 2438, 2439, 2410, 2409
 770, 1008, 1009,  980,  979, 2439, 2440, 2411, 2410
 771, 1009, 1010,  981,  980, 2440, 2441, 2412, 2411
 772, 1010, 1011,  982,  981, 2441, 2442, 2413, 2412
 773, 1011, 1012,  983,  982, 2442, 2443, 2414, 2413
 774, 1012, 1013,  984,  983, 2443, 2444, 2415, 2414
 775, 1013, 1014,  985,  984, 2444, 2445, 2416, 2415
 776, 1014, 1015,  986,  985, 2445, 2446, 2417, 2416
 777, 1015, 1016,  987,  986, 2446, 2447, 2418, 2417
 778, 1016, 1017,  988,  987, 2447, 2448, 2419, 2418
 779, 1017, 1018,  989,  988, 2448, 2449, 2420, 2419
 780, 1018,   63,   62,  989, 2449, 1494, 1493, 2420
 781,   98, 1019,  990,   99, 1529, 2450, 2421, 1530
 782, 1019, 1020,  991,  990, 2450, 2451, 2422, 2421
 783, 1020, 1021,  992,  991, 2451, 2452, 2423, 2422
 784, 1021, 1022,  993,  992, 2452, 2453, 2424, 2423
 785, 1022, 1023,  994,  993, 2453, 2454, 2425, 2424
 786, 1023, 1024,  995,  994, 2454, 2455, 2426, 2425
 787, 1024, 1025,  996,  995, 2455, 2456, 2427, 2426
 788, 1025, 1026,  997,  996, 2456, 2457, 2428, 2427
 789, 1026, 1027,  998,  997, 2457, 2458, 2429, 2428
 790, 1027, 1028,  999,  998, 2458, 2459, 2430, 2429
 791, 1028, 1029, 1000,  999, 2459, 2460, 2431, 2430
 792, 1029, 1030, 1001, 1000, 2460, 2461, 2432, 2431
 793, 1030, 1031, 1002, 1001, 2461, 2462, 2433, 2432
 794, 1031, 1032, 1003, 1002, 2462, 2463, 2434, 2433
 795, 1032, 1033, 1004, 1003, 2463, 2464, 2435, 2434
 796, 1033, 1034, 1005, 1004, 2464, 2465, 2436, 2435
 797, 1034, 1035, 1006, 1005, 2465, 2466, 2437, 2436
 798, 1035, 1036, 1007, 1006, 2466, 2467, 2438, 2437
 799, 1036, 1037, 1008, 1007, 2467, 2468, 2439, 2438
 800, 1037, 1038, 1009, 1008, 2468, 2469, 2440, 2439
 801, 1038, 1039, 1010, 1009, 2469, 2470, 2441, 2440
 802, 1039, 1040, 1011, 1010, 2470, 2471, 2442, 2441
 803, 1040, 1041, 1012, 1011, 2471, 2472, 2443, 2442
 804, 1041, 1042, 1013, 1012, 2472, 2473, 2444, 2443
 805, 1042, 1043, 1014, 1013, 2473, 2474, 2445, 2444
 806, 1043, 1044, 1015, 1014, 2474, 2475, 2446, 2445
 807, 1044, 1045, 1016, 1015, 2475, 2476, 2447, 2446
 808, 1045, 1046, 1017, 1016, 2476, 2477, 2448, 2447
 809, 1046, 1047, 1018, 1017, 2477, 2478, 2449, 2448
 810, 1047,   64,   63, 1018, 2478, 1495, 1494, 2449
 811,   97, 1048, 1019,   98, 1528, 2479, 2450, 1529
 812, 1048, 1049, 1020, 1019, 2479, 2480, 2451, 2450
 813, 1049, 1050, 1021, 1020, 2480, 2481, 2452, 2451
 814, 1050, 1051, 1022, 1021, 2481, 2482, 2453, 2452
 815, 1051, 1052, 1023, 1022, 2482, 2483, 2454, 2453
 816, 1052, 1053, 1024, 1023, 2483, 2484, 2455, 2454
 817, 1053, 1054, 1025, 1024, 2484, 2485, 2456, 2455
 818, 1054, 1055, 1026, 1025, 2485, 2486, 2457, 2456
 819, 1055, 1056, 1027, 1026, 2486, 2487, 2458, 2457
 820, 1056, 1057, 1028, 1027, 2487, 2488, 2459, 2458
 821, 1057, 1058, 1029, 1028, 2488, 2489, 2460, 2459
 822, 1058, 1059, 1030, 1029, 2489, 2490, 2461, 2460
 823, 1059, 1060, 1031, 1030, 2490, 2491, 2462, 2461
 824, 1060, 1061, 1032, 1031, 2491, 2492, 2463, 2462
 825, 1061, 1062, 1033, 1032, 2492, 2493, 2464, 2463
 826, 1062, 1063, 1034, 1033, 2493, 2494, 2465, 2464
 827, 1063, 1064, 1035, 1034, 2494, 2495, 2466, 2465
 828, 1064, 1065, 1036, 1035, 2495, 2496, 2467, 2466
 829, 1065, 1066, 1037, 1036, 2496, 2497, 2468, 2467
 830, 1066, 1067, 1038, 1037, 2497, 2498, 2469, 2468
 831, 1067, 1068, 1039, 1038, 2498, 2499, 2470, 2469
 832, 1068, 1069, 1040, 1039, 2499, 2500, 2471, 2470
 833, 1069, 1070, 1041, 1040, 2500, 2501, 2472, 2471
 834, 1070, 1071, 1042, 1041, 2501, 2502, 2473, 2472
 835, 1071, 1072, 1043, 1042, 2502, 2503, 2474, 2473
 836, 1072, 1073, 1044, 1043, 2503, 2504, 2475, 2474
 837, 1073, 1074, 1045, 1044, 2504, 2505, 2476, 2475
 838, 1074, 1075, 1046, 1045, 2505, 2506, 2477, 2476
 839, 1075, 1076, 1047, 1046, 2506, 2507, 2478, 2477
 840, 1076,   65,   64, 1047, 2507, 1496, 1495, 2478
 841,   96, 1077, 1048,   97, 1527, 2508, 2479, 1528
 842, 1077, 1078, 1049, 1048, 2508, 2509, 2480, 2479
 843, 1078, 1079, 1050, 1049, 2509, 2510, 2481, 2480
 844, 1079, 1080, 1051, 1050, 2510, 2511, 2482, 2481
 845, 1080, 1081, 1052, 1051, 2511, 2512, 2483, 2482
 846, 1081, 1082, 1053, 1052, 2512, 2513, 2484, 2483
 847, 1082, 1083, 1054, 1053, 2513, 2514, 2485, 2484
 848, 1083, 1084, 1055, 1054, 2514, 2515, 2486, 2485
 849, 1084, 1085, 1056, 1055, 2515, 2516, 2487, 2486
 850, 1085, 1086, 1057, 1056, 2516, 2517, 2488, 2487
 851, 1086, 1087, 1058, 1057, 2517, 2518, 2489, 2488
 852, 1087, 1088, 1059, 1058, 2518, 2519, 2490, 2489
 853, 1088, 1089, 1060, 1059, 2519, 2520, 2491, 2490
 854, 1089, 1090, 1061, 1060, 2520, 2521, 2492, 2491
 855, 1090, 1091, 1062, 1061, 2521, 2522, 2493, 2492
 856, 1091, 1092, 1063, 1062, 2522, 2523, 2494, 2493
 857, 1092, 1093, 1064, 1063, 2523, 2524, 2495, 2494
 858, 1093, 1094, 1065, 1064, 2524, 2525, 2496, 2495
 859, 1094, 1095, 1066, 1065, 2525, 2526, 2497, 2496
 860, 1095, 1096, 1067, 1066, 2526, 2527, 2498, 2497
 861, 1096, 1097, 1068, 1067, 2527, 2528, 2499, 2498
 862, 1097, 1098, 1069, 1068, 2528, 2529, 2500, 2499
 863, 1098, 1099, 1070, 1069, 2529, 2530, 2501, 2500
 864, 1099, 1100, 1071, 1070, 2530, 2531, 2502, 2501
 865, 1100, 1101, 1072, 1071, 2531, 2532, 2503, 2502
 866, 1101, 1102, 1073, 1072, 2532, 2533, 2504, 2503
 867, 1102, 1103, 1074, 1073, 2533, 2534, 2505, 2504
 868, 1103, 1104, 1075, 1074, 2534, 2535, 2506, 2505
 869, 1104, 1105, 1076, 1075, 2535, 2536, 2507, 2506
 870, 1105,   66,   65, 1076, 2536, 1497, 1496, 2507
 871,    4,   95, 1077,   96, 1435, 1526, 2508, 1527
 872,   95,   94, 1078, 1077, 1526, 1525, 2509, 2508
 873,   94,   93, 1079, 1078, 1525, 1524, 2510, 2509
 874,   93,   92, 1080, 1079, 1524, 1523, 2511, 2510
 875,   92,   91, 1081, 1080, 1523, 1522, 2512, 2511
 876,   91,   90, 1082, 1081, 1522, 1521, 2513, 2512
 877,   90,   89, 1083, 1082, 1521, 1520, 2514, 2513
 878,   89,   88, 1084, 1083, 1520, 1519, 2515, 2514
 879,   88,   87, 1085, 1084, 1519, 1518, 2516, 2515
 880,   87,   86, 1086, 1085, 1518, 1517, 2517, 2516
 881,   86,   85, 1087, 1086, 1517, 1516, 2518, 2517
 882,   85,   84, 1088, 1087, 1516, 1515, 2519, 2518
 883,   84,   83, 1089, 1088, 1515, 1514, 2520, 2519
 884,   83,   82, 1090, 1089, 1514, 1513, 2521, 2520
 885,   82,   81, 1091, 1090, 1513, 1512, 2522, 2521
 886,   81,   80, 1092, 1091, 1512, 1511, 2523, 2522
 887,   80,   79, 1093, 1092, 1511, 1510, 2524, 2523
 888,   79,   78, 1094, 1093, 1510, 1509, 2525, 2524
 889,   78,   77, 1095, 1094, 1509, 1508, 2526, 2525
 890,   77,   76, 1096, 1095, 1508, 1507, 2527, 2526
 891,   76,   75, 1097, 1096, 1507, 1506, 2528, 2527
 892,   75,   74, 1098, 1097, 1506, 1505, 2529, 2528
 893,   74,   73, 1099, 1098, 1505, 1504, 2530, 2529
 894,   73,   72, 1100, 1099, 1504, 1503, 2531, 2530
 895,   72,   71, 1101, 1100, 1503, 1502, 2532, 2531
 896,   71,   70, 1102, 1101, 1502, 1501, 2533, 2532
 897,   70,   69, 1103, 1102, 1501, 1500, 2534, 2533
 898,   69,   68, 1104, 1103, 1500, 1499, 2535, 2534
 899,   68,   67, 1105, 1104, 1499, 1498, 2536, 2535
 900,   67,    3,   66, 1105, 1498, 1434, 1497, 2536
 901,   32, 1339, 1118,   31, 1463, 2770, 2549, 1462
 902, 1170,   30,   31, 1118, 2601, 1461, 1462, 2549
 903, 1117,   29,   30, 1170, 2548, 1460, 1461, 2601
 904, 1174, 1314,  218,  217, 2605, 2745, 1649, 1648
 905,  220,  219, 1315, 1175, 1651, 1650, 2746, 2606
 906, 1119,   33,   34, 1333, 2550, 1464, 1465, 2764
 907,   36, 1167, 1120,   35, 1467, 2598, 2551, 1466
 908, 1339, 1119, 1333, 1242, 2770, 2550, 2764, 2673
 909, 1242, 1176,  223,  222, 2673, 2607, 1654, 1653
 910,  224,  223, 1176, 1177, 1655, 1654, 2607, 2608
 911,  225,  224, 1177, 1178, 1656, 1655, 2608, 2609
 912,  226,  225, 1178, 1179, 1657, 1656, 2609, 2610
 913, 1180,  227,  226, 1179, 2611, 1658, 1657, 2610
 914,   38, 1268, 1122,    2, 1469, 2699, 2553, 1433
 915,   40, 1267, 1107,   39, 1471, 2698, 2538, 1470
 916, 1165,   41,   42, 1334, 2596, 1472, 1473, 2765
 917, 1164,   43,   44, 1266, 2595, 1474, 1475, 2697
 918,   46, 1171, 1163,   45, 1477, 2602, 2594, 1476
 919, 1266,   44,   45, 1163, 2697, 1475, 1476, 2594
 920, 1254,   28,   29, 1117, 2685, 1459, 1460, 2548
 921,  216,  215, 1181, 1313, 1647, 1646, 2612, 2744
 922, 1313, 1174,  217,  216, 2744, 2605, 1648, 1647
 923, 1355,   26,   27, 1116, 2786, 1457, 1458, 2547
 924, 1115,   24,   25, 1380, 2546, 1455, 1456, 2811
 925,  214,  213, 1182, 1312, 1645, 1644, 2613, 2743
 926, 1354, 1115, 1312, 1182, 2785, 2546, 2743, 2613
 927,   22,   23, 1354, 1114, 1453, 1454, 2785, 2545
 928,  212,  211, 1183, 1311, 1643, 1642, 2614, 2742
 929, 1353, 1114, 1311, 1183, 2784, 2545, 2742, 2614
 930, 1353, 1113,   20,   21, 2784, 2544, 1451, 1452
 931, 1184, 1309,  209,  208, 2615, 2740, 1640, 1639
 932, 1374, 1113, 1310, 1309, 2805, 2544, 2741, 2740
 933,   19,   20, 1113, 1185, 1450, 1451, 2544, 2616
 934,  207,  206, 1186, 1308, 1638, 1637, 2617, 2739
 935, 1308, 1184,  208,  207, 2739, 2615, 1639, 1638
 936,   18,   19, 1185, 1112, 1449, 1450, 2616, 2543
 937,   18, 1112, 1187,   17, 1449, 2543, 2618, 1448
 938,  205,  204, 1191, 1307, 1636, 1635, 2622, 2738
 939, 1307, 1186,  206,  205, 2738, 2617, 1637, 1636
 940,   17, 1187, 1111,   16, 1448, 2618, 2542, 1447
 941, 1255,   15,   16, 1111, 2686, 1446, 1447, 2542
 942, 1336,   13,   14, 1110, 2767, 1444, 1445, 2541
 943, 1256,   11,   12, 1109, 2687, 1442, 1443, 2540
 944, 1257,    9,   10, 1106, 2688, 1440, 1441, 2537
 945,    1, 1108, 1285, 1192, 1432, 2539, 2716, 2623
 946, 1286, 1188,  192,  191, 2717, 2619, 1623, 1622
 947, 1188, 1285,  193,  192, 2619, 2716, 1624, 1623
 948, 1285, 1189,  194,  193, 2716, 2620, 1625, 1624
 949,  195, 1189, 1303,  196, 1626, 2620, 2734, 1627
 950, 1306, 1305, 1361, 1417, 2737, 2736, 2792, 2848
 951, 1190, 1416,  203,  202, 2621, 2847, 1634, 1633
 952, 1416, 1191,  204,  203, 2847, 2622, 1635, 1634
 953,   15, 1255, 1110,   14, 1446, 2686, 2541, 1445
 954,    1, 1192, 1123,  124, 1432, 2623, 2554, 1555
 955,  124, 1123, 1194,  123, 1555, 2554, 2625, 1554
 956, 1193, 1287,  190,  189, 2624, 2718, 1621, 1620
 957,  191,  190, 1287, 1286, 1622, 1621, 2718, 2717
 958,  122,  123, 1194, 1124, 1553, 1554, 2625, 2555
 959,  122, 1124, 1196,  121, 1553, 2555, 2627, 1552
 960,  188,  187, 1195, 1288, 1619, 1618, 2626, 2719
 961, 1396, 1288, 1125, 1196, 2827, 2719, 2556, 2627
 962,  121, 1196, 1125,  120, 1552, 2627, 2556, 1551
 963, 1126,  118,  119, 1340, 2557, 1549, 1550, 2771
 964,  186,  185, 1398, 1289, 1617, 1616, 2829, 2720
 965, 1398, 1340, 1195, 1289, 2829, 2771, 2626, 2720
 966,  120, 1125, 1340,  119, 1551, 2556, 2771, 1550
 967, 1172,  117,  118, 1126, 2603, 1548, 1549, 2557
 968, 1258,  115,  116, 1127, 2689, 1546, 1547, 2558
 969, 1344,  113,  114, 1128, 2775, 1544, 1545, 2559
 970,  112, 1381, 1129,  111, 1543, 2812, 2560, 1542
 971, 1345, 1130,  109,  110, 2776, 2561, 1540, 1541
 972,  107,  108, 1346, 1131, 1538, 1539, 2777, 2562
 973,  105,  106, 1197, 1132, 1536, 1537, 2628, 2563
 974,  104, 1198, 1133,  103, 1535, 2629, 2564, 1534
 975, 1259,  102,  103, 1133, 2690, 1533, 1534, 2564
 976,  102, 1259, 1134,  101, 1533, 2690, 2565, 1532
 977, 1335,  100,  101, 1134, 2766, 1531, 1532, 2565
 978, 1135,   99,  100, 1335, 2566, 1530, 1531, 2766
 979, 1300, 1206,  165,  164, 2731, 2637, 1596, 1595
 980, 1199, 1412,  168,  167, 2630, 2843, 1599, 1598
 981, 1299, 1199,  167,  166, 2730, 2630, 1598, 1597
 982, 1412, 1200,  169,  168, 2843, 2631, 1600, 1599
 983, 1412, 1259, 1298, 1200, 2843, 2690, 2729, 2631
 984, 1132, 1399, 1366, 1198, 2563, 2830, 2797, 2629
 985, 1295, 1201, 1343, 1131, 2726, 2632, 2774, 2562
 986, 1131, 1346, 1202, 1295, 2562, 2777, 2633, 2726
 987, 1293, 1203, 1345, 1129, 2724, 2634, 2776, 2560
 988, 1293, 1344, 1128, 1204, 2724, 2775, 2559, 2635
 989, 1292, 1258, 1127, 1291, 2723, 2689, 2558, 2722
 990,  185,  184, 1290, 1398, 1616, 1615, 2721, 2829
 991, 1127,  116,  117, 1172, 2558, 1547, 1548, 2603
 992, 1260,   98,   99, 1135, 2691, 1529, 1530, 2566
 993,  164,  163, 1301, 1300, 1595, 1594, 2732, 2731
 994, 1299,  166,  165, 1206, 2730, 1597, 1596, 2637
 995, 1261,   96,   97, 1136, 2692, 1527, 1528, 2567
 996,  160, 1210, 1302,  161, 1591, 2641, 2733, 1592
 997, 1207, 1301,  163,  162, 2638, 2732, 1594, 1593
 998,    4, 1152, 1284, 1166, 1435, 2583, 2715, 2597
 999, 1208, 1209,  157,  156, 2639, 2640, 1588, 1587
1000, 1284, 1210,  159,  158, 2715, 2641, 1590, 1589
1001,   89,   90, 1342, 1148, 1520, 1521, 2773, 2579
1002, 1173,   88,   89, 1148, 2604, 1519, 1520, 2579
1003, 1147,   87,   88, 1173, 2578, 1518, 1519, 2604
1004, 1211, 1281,  148,  147, 2642, 2712, 1579, 1578
1005,  150,  149, 1282, 1212, 1581, 1580, 2713, 2643
1006, 1283, 1212, 1408, 1409, 2714, 2643, 2839, 2840
1007,   91,   92, 1337, 1149, 1522, 1523, 2768, 2580
1008, 1262,   86,   87, 1147, 2693, 1517, 1518, 2578
1009,  146,  145, 1213, 1280, 1577, 1576, 2644, 2711
1010, 1280, 1211,  147,  146, 2711, 2642, 1578, 1577
1011, 1352,   84,   85, 1146, 2783, 1515, 1516, 2577
1012, 1145,   82,   83, 1382, 2576, 1513, 1514, 2813
1013,  144,  143, 1214, 1279, 1575, 1574, 2645, 2710
1014, 1214, 1351, 1145, 1401, 2645, 2782, 2576, 2832
1015,   80,   81, 1351, 1144, 1511, 1512, 2782, 2575
1016,  142,  141, 1215, 1278, 1573, 1572, 2646, 2709
1017, 1278, 1215, 1350, 1144, 2709, 2646, 2781, 2575
1018, 1350, 1143,   78,   79, 2781, 2574, 1509, 1510
1019, 1216, 1276,  139,  138, 2647, 2707, 1570, 1569
1020, 1400, 1277, 1276, 1423, 2831, 2708, 2707, 2854
1021,   77,   78, 1143, 1217, 1508, 1509, 2574, 2648
1022,  137,  136, 1218, 1275, 1568, 1567, 2649, 2706
1023, 1275, 1216,  138,  137, 2706, 2647, 1569, 1568
1024,   77, 1217, 1142,   76, 1508, 2648, 2573, 1507
1025,   75,   76, 1142, 1219, 1506, 1507, 2573, 2650
1026,  135,  134, 1223, 1274, 1566, 1565, 2654, 2705
1027, 1274, 1218,  136,  135, 2705, 2649, 1567, 1566
1028,   74,   75, 1219, 1141, 1505, 1506, 2650, 2572
1029, 1263,   73,   74, 1141, 2694, 1504, 1505, 2572
1030, 1338,   71,   72, 1140, 2769, 1502, 1503, 2571
1031, 1264,   69,   70, 1139, 2695, 1500, 1501, 2570
1032, 1367,   67,   68, 1138, 2798, 1498, 1499, 2569
1033, 1137, 1376, 1224,    3, 2568, 2807, 2655, 1434
1034,  262,  261, 1220, 1332, 1693, 1692, 2651, 2763
1035,  125, 1379, 1269,  126, 1556, 2810, 2700, 1557
1036,  263, 1221, 1379,  264, 1694, 2652, 2810, 1695
1037, 1252, 1367, 1138, 1270, 2683, 2798, 2569, 2701
1038, 1253, 1359, 1362, 1271, 2684, 2790, 2793, 2702
1039, 1222, 1273,  133,  132, 2653, 2704, 1564, 1563
1040, 1273, 1223,  134,  133, 2704, 2654, 1565, 1564
1041, 1263, 1140,   72,   73, 2694, 2571, 1503, 1504
1042,    3, 1224, 1153,   66, 1434, 2655, 2584, 1497
1043,   66, 1153, 1227,   65, 1497, 2584, 2658, 1496
1044,  260,  259, 1225, 1226, 1691, 1690, 2656, 2657
1045,  261,  260, 1226, 1220, 1692, 1691, 2657, 2651
1046,   65, 1227, 1154,   64, 1496, 2658, 2585, 1495
1047,   64, 1154, 1230,   63, 1495, 2585, 2661, 1494
1048,  258,  257, 1228, 1229, 1689, 1688, 2659, 2660
1049,  259,  258, 1229, 1225, 1690, 1689, 2660, 2656
1050,   62,   63, 1230, 1155, 1493, 1494, 2661, 2586
1051, 1341, 1156,   60,   61, 2772, 2587, 1491, 1492
1052,  256,  255, 1428, 1331, 1687, 1686, 2859, 2762
1053, 1428, 1341, 1228, 1331, 2859, 2772, 2659, 2762
1054,   61,   62, 1155, 1341, 1492, 1493, 2586, 2772
1055, 1169,   59,   60, 1156, 2600, 1490, 1491, 2587
1056, 1265,   57,   58, 1157, 2696, 1488, 1489, 2588
1057, 1158, 1348,   55,   56, 2589, 2779, 1486, 1487
1058,   54, 1383, 1159,   53, 1485, 2814, 2590, 1484
1059, 1347, 1160,   51,   52, 2778, 2591, 1482, 1483
1060,   49,   50, 1356, 1161, 1480, 1481, 2787, 2592
1061,   48, 1231, 1162,   47, 1479, 2662, 2593, 1478
1062, 1364, 1232, 1163, 1171, 2795, 2663, 2594, 2602
1063, 1322, 1233,  239,  238, 2753, 2664, 1670, 1669
1064,  238,  237, 1234, 1322, 1669, 1668, 2665, 2753
1065, 1321, 1234,  237,  236, 2752, 2665, 1668, 1667
1066,  234, 1235, 1320,  235, 1665, 2666, 2751, 1666
1067,  233,  232, 1236, 1319, 1664, 1663, 2667, 2750
1068,    8,  229, 1237,  230, 1439, 1660, 2668, 1661
1069,  230, 1237, 1318,  231, 1661, 2668, 2749, 1662
1070, 1334,   42,   43, 1164, 2765, 1473, 1474, 2595
1071, 1267,   40,   41, 1165, 2698, 1471, 1472, 2596
1072, 1268,   38,   39, 1107, 2699, 1469, 1470, 2538
1073, 1283, 1238,  152,  151, 2714, 2669, 1583, 1582
1074,  153,  152, 1238, 1239, 1584, 1583, 2669, 2670
1075,   93,   94, 1168, 1150, 1524, 1525, 2599, 2581
1076,  154,  153, 1239, 1240, 1585, 1584, 2670, 2671
1077,  156,  155, 1241, 1208, 1587, 1586, 2672, 2639
1078,    4, 1166, 1151,   95, 1435, 2597, 2582, 1526
1079, 1235, 1319, 1425, 1426, 2666, 2750, 2856, 2857
1080, 1162, 1424, 1364, 1171, 2593, 2855, 2795, 2602
1081, 1231, 1421, 1424, 1162, 2662, 2852, 2855, 2593
1082, 1325, 1324, 1373, 1161, 2756, 2755, 2804, 2592
1083, 1325, 1244,  246,  245, 2756, 2675, 1677, 1676
1084, 1356, 1160, 1326, 1244, 2787, 2591, 2757, 2675
1085, 1326, 1245,  248,  247, 2757, 2676, 1679, 1678
1086, 1347, 1159, 1327, 1245, 2778, 2590, 2758, 2676
1087, 1327, 1246,  250,  249, 2758, 2677, 1681, 1680
1088, 1349, 1328, 1246, 1158, 2780, 2759, 2677, 2589
1089,   57, 1265, 1158,   56, 1488, 2696, 2589, 1487
1090, 1247, 1329,  253,  252, 2678, 2760, 1684, 1683
1091,  255,  254, 1330, 1428, 1686, 1685, 2761, 2859
1092, 1157,   58,   59, 1169, 2588, 1489, 1490, 2600
1093, 1248, 1304,  198,  197, 2679, 2735, 1629, 1628
1094, 1249, 1305,  200,  199, 2680, 2736, 1631, 1630
1095, 1256, 1361, 1418, 1106, 2687, 2792, 2849, 2537
1096, 1306, 1190,  202,  201, 2737, 2621, 1633, 1632
1097, 1109,   12,   13, 1336, 2540, 1443, 1444, 2767
1098,    2, 1250, 1121,   37, 1433, 2681, 2552, 1468
1099,    2, 1122, 1375, 1250, 1433, 2553, 2806, 2681
1100,  112,  113, 1344, 1381, 1543, 1544, 2775, 2812
1101, 1346, 1130, 1294, 1202, 2777, 2561, 2725, 2633
1102, 1419, 1343, 1201, 1296, 2850, 2774, 2632, 2727
1103, 1251, 1366, 1399, 1297, 2682, 2797, 2830, 2728
1104, 1366, 1251, 1133, 1198, 2797, 2682, 2564, 2629
1105, 1251, 1298, 1259, 1133, 2682, 2729, 2690, 2564
1106, 1252, 1270,  128,  127, 2683, 2701, 1559, 1558
1107, 1269, 1137, 1367, 1252, 2700, 2568, 2798, 2683
1108, 1253, 1271,  130,  129, 2684, 2702, 1561, 1560
1109, 1270, 1138, 1359, 1253, 2701, 2569, 2790, 2684
1110, 1272, 1222,  132,  131, 2703, 2653, 1563, 1562
1111, 1139,   70,   71, 1338, 2570, 1501, 1502, 2769
1112, 1167,   36,   37, 1121, 2598, 1467, 1468, 2552
1113, 1333,   34,   35, 1120, 2764, 1465, 1466, 2551
1114, 1119, 1339,   32,   33, 2550, 2770, 1463, 1464
1115, 1116,   27,   28, 1254, 2547, 1458, 1459, 2685
1116, 1355, 1380,   25,   26, 2786, 2811, 1456, 1457
1117, 1115, 1354,   23,   24, 2546, 2785, 1454, 1455
1118, 1114, 1353,   21,   22, 2545, 2784, 1452, 1453
1119, 1106,   10,   11, 1256, 2537, 1441, 1442, 2687
1120, 1108,    1,    9, 1257, 2539, 1432, 1440, 2688
1121, 1128,  114,  115, 1258, 2559, 1545, 1546, 2689
1122, 1129, 1345,  110,  111, 2560, 2776, 1541, 1542
1123, 1130, 1346,  108,  109, 2561, 2777, 1539, 1540
1124, 1131, 1197,  106,  107, 2562, 2628, 1537, 1538
1125, 1198,  104,  105, 1132, 2629, 1535, 1536, 2563
1126, 1136,   97,   98, 1260, 2567, 1528, 1529, 2691
1127, 1152,    4,   96, 1261, 2583, 1435, 1527, 2692
1128, 1168,   94,   95, 1151, 2599, 1525, 1526, 2582
1129, 1337,   92,   93, 1150, 2768, 1523, 1524, 2581
1130, 1149, 1342,   90,   91, 2580, 2773, 1521, 1522
1131, 1146,   85,   86, 1262, 2577, 1516, 1517, 2693
1132, 1382,   83,   84, 1352, 2813, 1514, 1515, 2783
1133, 1145, 1351,   81,   82, 2576, 2782, 1512, 1513
1134, 1144, 1350,   79,   80, 2575, 2781, 1510, 1511
1135, 1138,   68,   69, 1264, 2569, 1499, 1500, 2695
1136, 1367, 1137,    3,   67, 2798, 2568, 1434, 1498
1137, 1383,   54,   55, 1348, 2814, 1485, 1486, 2779
1138, 1347,   52,   53, 1159, 2778, 1483, 1484, 2590
1139, 1160, 1356,   50,   51, 2591, 2787, 1481, 1482
1140, 1161, 1231,   48,   49, 2592, 2662, 1479, 1480
1141, 1171,   46,   47, 1162, 2602, 1477, 1478, 2593
1142, 1138, 1264, 1362, 1359, 2569, 2695, 2793, 2790
1143, 1223, 1273, 1394, 1395, 2654, 2704, 2825, 2826
1144,  141,  140, 1277, 1215, 1572, 1571, 2708, 2646
1145,  143,  142, 1278, 1214, 1574, 1573, 2709, 2645
1146,  145,  144, 1279, 1213, 1576, 1575, 2710, 2644
1147,  149,  148, 1281, 1282, 1580, 1579, 2712, 2713
1148, 1411, 1239, 1238, 1410, 2842, 2670, 2669, 2841
1149, 1368, 1388, 1150, 1168, 2799, 2819, 2581, 2599
1150, 1152, 1302, 1210, 1284, 2583, 2733, 2641, 2715
1151, 1210,  160,    6,  159, 2641, 1591, 1437, 1590
1152, 1189,  195,    7,  194, 2620, 1626, 1438, 1625
1153, 1108, 1303, 1189, 1285, 2539, 2734, 2620, 2716
1154, 1390, 1286, 1287, 1370, 2821, 2717, 2718, 2801
1155,  189,  188, 1288, 1193, 1620, 1619, 2719, 2624
1156,  187,  186, 1289, 1195, 1618, 1617, 2720, 2626
1157,  184,  183, 1205, 1290, 1615, 1614, 2636, 2721
1158,  183,  182, 1291, 1205, 1614, 1613, 2722, 2636
1159, 1130, 1345, 1203, 1294, 2561, 2776, 2634, 2725
1160,  174,  173, 1296, 1201, 1605, 1604, 2727, 2632
1161, 1136, 1414, 1300, 1301, 2567, 2845, 2731, 2732
1162,  196, 1303, 1248,  197, 1627, 2734, 2679, 1628
1163, 1106, 1418, 1249, 1304, 2537, 2849, 2680, 2735
1164, 1307, 1191, 1416, 1255, 2738, 2622, 2847, 2686
1165,  211,  210, 1310, 1183, 1642, 1641, 2741, 2614
1166,  213,  212, 1311, 1182, 1644, 1643, 2742, 2613
1167,  215,  214, 1312, 1181, 1646, 1645, 2743, 2612
1168,  219,  218, 1314, 1315, 1650, 1649, 2745, 2746
1169, 1333, 1393, 1176, 1242, 2764, 2824, 2607, 2673
1170, 1180, 1179, 1371, 1375, 2611, 2610, 2802, 2806
1171, 1122, 1317, 1180, 1375, 2553, 2748, 2611, 2806
1172, 1122, 1318, 1237, 1317, 2553, 2749, 2668, 2748
1173,  234,  233, 1319, 1235, 1665, 1664, 2750, 2666
1174, 1320, 1358, 1267, 1165, 2751, 2789, 2698, 2596
1175, 1232,  241,  240, 1431, 2663, 1672, 1671, 2862
1176, 1424, 1421, 1243, 1323, 2855, 2852, 2674, 2754
1177,  244,  243, 1243, 1324, 1675, 1674, 2674, 2755
1178, 1160, 1347, 1245, 1326, 2591, 2778, 2676, 2757
1179, 1158, 1246, 1383, 1348, 2589, 2677, 2814, 2779
1180, 1328, 1349, 1430, 1247, 2759, 2780, 2861, 2678
1181, 1330,  254,  253, 1329, 2761, 1685, 1684, 2760
1182,  257,  256, 1331, 1228, 1688, 1687, 2762, 2659
1183, 1341, 1155, 1229, 1228, 2772, 2586, 2660, 2659
1184, 1220, 1226, 1377, 1369, 2651, 2657, 2808, 2800
1185, 1332, 1376, 1137, 1221, 2763, 2807, 2568, 2652
1186,  264, 1379,  125,    5, 1695, 2810, 1556, 1436
1187, 1179, 1178, 1378, 1371, 2610, 2609, 2809, 2802
1188, 1247, 1430, 1429, 1329, 2678, 2861, 2860, 2760
1189, 1262, 1147, 1406, 1405, 2693, 2578, 2837, 2836
1190, 1313, 1254, 1117, 1174, 2744, 2685, 2548, 2605
1191, 1181, 1116, 1254, 1313, 2612, 2547, 2685, 2744
1192, 1175, 1316,  221,  220, 2606, 2747, 1652, 1651
1193, 1314, 1170, 1118, 1315, 2745, 2601, 2549, 2746
1194, 1120, 1167, 1378, 1392, 2551, 2598, 2809, 2823
1195, 1378, 1167, 1121, 1371, 2809, 2598, 2552, 2802
1196, 1180, 1317,  228,  227, 2611, 2748, 1659, 1658
1197, 1380, 1355, 1116, 1181, 2811, 2786, 2547, 2612
1198, 1113, 1353, 1183, 1310, 2544, 2784, 2614, 2741
1199, 1186, 1365, 1415, 1308, 2617, 2796, 2846, 2739
1200, 1112, 1415, 1365, 1187, 2543, 2846, 2796, 2618
1201, 1186, 1307, 1255, 1111, 2617, 2738, 2686, 2542
1202, 1365, 1186, 1111, 1187, 2796, 2617, 2542, 2618
1203, 1390, 1389, 1188, 1286, 2821, 2820, 2619, 2717
1204, 1306, 1336, 1110, 1190, 2737, 2767, 2541, 2621
1205, 1336, 1306, 1417, 1109, 2767, 2737, 2848, 2540
1206, 1390, 1123, 1192, 1389, 2821, 2554, 2623, 2820
1207, 1340, 1125, 1288, 1195, 2771, 2556, 2719, 2626
1208, 1205, 1172, 1126, 1290, 2636, 2603, 2557, 2721
1209, 1299, 1335, 1134, 1199, 2730, 2766, 2565, 2630
1210, 1335, 1299, 1413, 1135, 2766, 2730, 2844, 2566
1211, 1200, 1298,  170,  169, 2631, 2729, 1601, 1600
1212, 1201, 1295,  175,  174, 2632, 2726, 1606, 1605
1213, 1295, 1202,  176,  175, 2726, 2633, 1607, 1606
1214, 1202, 1294,  177,  176, 2633, 2725, 1608, 1607
1215, 1294, 1203,  178,  177, 2725, 2634, 1609, 1608
1216, 1203, 1293,  179,  178, 2634, 2724, 1610, 1609
1217, 1293, 1204,  180,  179, 2724, 2635, 1611, 1610
1218, 1204, 1292,  181,  180, 2635, 2723, 1612, 1611
1219, 1300, 1414, 1360, 1206, 2731, 2845, 2791, 2637
1220, 1151, 1387, 1368, 1168, 2582, 2818, 2799, 2599
1221, 1209, 1284,  158,  157, 2640, 2715, 1589, 1588
1222, 1387, 1151, 1166, 1386, 2818, 2582, 2597, 2817
1223, 1280, 1404, 1405, 1211, 2711, 2835, 2836, 2642
1224, 1212, 1283,  151,  150, 2643, 2714, 1582, 1581
1225, 1406, 1147, 1173, 1407, 2837, 2578, 2604, 2838
1226, 1382, 1352, 1403, 1402, 2813, 2783, 2834, 2833
1227, 1214, 1401, 1402, 1279, 2645, 2832, 2833, 2710
1228, 1216, 1372, 1423, 1276, 2647, 2803, 2854, 2707
1229, 1372, 1216, 1142, 1217, 2803, 2647, 2573, 2648
1230, 1142, 1216, 1275, 1422, 2573, 2647, 2706, 2853
1231, 1363, 1218, 1274, 1397, 2794, 2649, 2705, 2828
1232, 1363, 1397, 1141, 1219, 2794, 2828, 2572, 2650
1233, 1153, 1369, 1377, 1227, 2584, 2800, 2808, 2658
1234, 1332, 1221,  263,  262, 2763, 2652, 1694, 1693
1235, 1139, 1338, 1385, 1384, 2570, 2769, 2816, 2815
1236, 1140, 1263, 1395, 1394, 2571, 2694, 2826, 2825
1237, 1376, 1369, 1153, 1224, 2807, 2800, 2584, 2655
1238, 1155, 1230, 1225, 1229, 2586, 2661, 2656, 2660
1239, 1427, 1154, 1227, 1377, 2858, 2585, 2658, 2808
1240, 1226, 1225, 1427, 1377, 2657, 2656, 2858, 2808
1241, 1357, 1169, 1156, 1330, 2788, 2600, 2587, 2761
1242, 1232, 1364, 1424, 1323, 2663, 2795, 2855, 2754
1243, 1232, 1323,  242,  241, 2663, 2754, 1673, 1672
1244, 1266, 1322, 1234, 1164, 2697, 2753, 2665, 2595
1245,  240,  239, 1233, 1431, 1671, 1670, 2664, 2862
1246, 1321, 1334, 1164, 1234, 2752, 2765, 2595, 2665
1247, 1236, 1268, 1425, 1319, 2667, 2699, 2856, 2750
1248, 1318, 1236,  232,  231, 2749, 2667, 1663, 1662
1249, 1317, 1237,  229,  228, 2748, 2668, 1660, 1659
1250, 1408, 1148, 1342, 1409, 2839, 2579, 2773, 2840
1251, 1411, 1388, 1240, 1239, 2842, 2819, 2671, 2670
1252,  155,  154, 1240, 1241, 1586, 1585, 2671, 2672
1253, 1387, 1208, 1241, 1368, 2818, 2639, 2672, 2799
1254, 1175, 1339, 1242, 1316, 2606, 2770, 2673, 2747
1255, 1316, 1242,  222,  221, 2747, 2673, 1653, 1652
1256, 1323, 1243,  243,  242, 2754, 2674, 1674, 1673
1257, 1244, 1326,  247,  246, 2675, 2757, 1678, 1677
1258, 1161, 1356, 1244, 1325, 2592, 2787, 2675, 2756
1259, 1245, 1327,  249,  248, 2676, 2758, 1680, 1679
1260, 1246, 1328,  251,  250, 2677, 2759, 1682, 1681
1261,  251, 1328, 1247,  252, 1682, 2759, 2678, 1683
1262, 1158, 1265, 1430, 1349, 2589, 2696, 2861, 2780
1263, 1248, 1257, 1106, 1304, 2679, 2688, 2537, 2735
1264, 1304, 1249,  199,  198, 2735, 2680, 1630, 1629
1265, 1371, 1121, 1250, 1375, 2802, 2552, 2681, 2806
1266, 1298, 1251,  171,  170, 2729, 2682, 1602, 1601
1267, 1251, 1297,  172,  171, 2682, 2728, 1603, 1602
1268, 1379, 1221, 1137, 1269, 2810, 2652, 2568, 2700
1269, 1269, 1252,  127,  126, 2700, 2683, 1558, 1557
1270, 1270, 1253,  129,  128, 2701, 2684, 1560, 1559
1271, 1259, 1412, 1199, 1134, 2690, 2843, 2630, 2565
1272, 1260, 1360, 1414, 1136, 2691, 2791, 2845, 2567
1273, 1338, 1140, 1394, 1385, 2769, 2571, 2825, 2816
1274, 1267, 1358, 1426, 1107, 2698, 2789, 2857, 2538
1275, 1318, 1122, 1268, 1236, 2749, 2553, 2699, 2667
1276,  131,  130, 1271, 1272, 1562, 1561, 2702, 2703
1277, 1394, 1273, 1222, 1385, 2825, 2704, 2653, 2816
1278, 1141, 1397, 1274, 1263, 2572, 2828, 2705, 2694
1279, 1218, 1363, 1422, 1275, 2649, 2794, 2853, 2706
1280,  140,  139, 1276, 1277, 1571, 1570, 2707, 2708
1281, 1423, 1372, 1217, 1143, 2854, 2803, 2648, 2574
1282, 1404, 1403, 1352, 1146, 2835, 2834, 2783, 2577
1283, 1281, 1211, 1405, 1406, 2712, 2642, 2836, 2837
1284, 1406, 1407, 1282, 1281, 2837, 2838, 2713, 2712
1285, 1370, 1391, 1124, 1194, 2801, 2822, 2555, 2625
1286, 1391, 1193, 1288, 1396, 2822, 2624, 2719, 2827
1287, 1292, 1291,  182,  181, 2723, 2722, 1613, 1612
1288, 1291, 1127, 1172, 1205, 2722, 2558, 2603, 2636
1289, 1297, 1296,  173,  172, 2728, 2727, 1604, 1603
1290, 1207, 1261, 1136, 1301, 2638, 2692, 2567, 2732
1291, 1207,  162,  161, 1302, 2638, 1593, 1592, 2733
1292, 1306,  201,  200, 1305, 2737, 1632, 1631, 2736
1293,  210,  209, 1309, 1310, 1641, 1640, 2740, 2741
1294, 1420, 1185, 1113, 1374, 2851, 2616, 2544, 2805
1295, 1114, 1354, 1182, 1311, 2545, 2785, 2613, 2742
1296, 1174, 1117, 1170, 1314, 2605, 2548, 2601, 2745
1297, 1315, 1118, 1339, 1175, 2746, 2549, 2770, 2606
1298, 1320, 1235, 1426, 1358, 2751, 2666, 2857, 2789
1299,  236,  235, 1320, 1321, 1667, 1666, 2751, 2752
1300, 1431, 1233, 1322, 1266, 2862, 2664, 2753, 2697
1301, 1266, 1163, 1232, 1431, 2697, 2594, 2663, 2862
1302,  245,  244, 1324, 1325, 1676, 1675, 2755, 2756
1303, 1421, 1231, 1161, 1373, 2852, 2662, 2592, 2804
1304, 1330, 1329, 1429, 1357, 2761, 2760, 2860, 2788
1305, 1376, 1332, 1220, 1369, 2807, 2763, 2651, 2800
1306, 1176, 1393, 1392, 1177, 2607, 2824, 2823, 2608
1307, 1320, 1165, 1334, 1321, 2751, 2596, 2765, 2752
1308, 1264, 1139, 1384, 1362, 2695, 2570, 2815, 2793
1309, 1330, 1156, 1341, 1428, 2761, 2587, 2772, 2859
1310, 1419, 1197, 1131, 1343, 2850, 2628, 2562, 2774
1311, 1129, 1381, 1344, 1293, 2560, 2812, 2775, 2724
1312, 1400, 1423, 1143, 1350, 2831, 2854, 2574, 2781
1313, 1144, 1351, 1214, 1278, 2575, 2782, 2645, 2709
1314, 1262, 1405, 1404, 1146, 2693, 2836, 2835, 2577
1315, 1429, 1157, 1169, 1357, 2860, 2588, 2600, 2788
1316, 1299, 1206, 1360, 1413, 2730, 2637, 2791, 2844
1317, 1249, 1418, 1361, 1305, 2680, 2849, 2792, 2736
1318, 1384, 1272, 1271, 1362, 2815, 2703, 2702, 2793
1319, 1421, 1373, 1324, 1243, 2852, 2804, 2755, 2674
1320, 1420, 1374, 1309, 1184, 2851, 2805, 2740, 2615
1321, 1284, 1209, 1386, 1166, 2715, 2640, 2817, 2597
1322, 1285, 1188, 1389, 1192, 2716, 2619, 2820, 2623
1323, 1240, 1388, 1368, 1241, 2671, 2819, 2799, 2672
1324, 1393, 1333, 1120, 1392, 2824, 2764, 2551, 2823
1325, 1392, 1378, 1178, 1177, 2823, 2809, 2609, 2608
1326, 1287, 1193, 1391, 1370, 2718, 2624, 2822, 2801
1327, 1181, 1312, 1115, 1380, 2612, 2743, 2546, 2811
1328, 1403, 1213, 1279, 1402, 2834, 2644, 2710, 2833
1329, 1402, 1401, 1145, 1382, 2833, 2832, 2576, 2813
1330, 1246, 1327, 1159, 1383, 2677, 2758, 2590, 2814
1331, 1385, 1222, 1272, 1384, 2816, 2653, 2703, 2815
1332, 1387, 1386, 1209, 1208, 2818, 2817, 2640, 2639
1333, 1411, 1337, 1150, 1388, 2842, 2768, 2581, 2819
1334, 1370, 1194, 1123, 1390, 2801, 2625, 2554, 2821
1335, 1337, 1411, 1410, 1149, 2768, 2842, 2841, 2580
1336, 1263, 1274, 1223, 1395, 2694, 2705, 2654, 2826
1337, 1196, 1124, 1391, 1396, 2627, 2555, 2822, 2827
1338, 1258, 1292, 1204, 1128, 2689, 2723, 2635, 2559
1339, 1399, 1419, 1296, 1297, 2830, 2850, 2727, 2728
1340, 1350, 1215, 1277, 1400, 2781, 2646, 2708, 2831
1341, 1403, 1404, 1280, 1213, 2834, 2835, 2711, 2644
1342, 1212, 1282, 1407, 1408, 2643, 2713, 2838, 2839
1343, 1148, 1408, 1407, 1173, 2579, 2839, 2838, 2604
1344, 1342, 1238, 1283, 1409, 2773, 2669, 2714, 2840
1345, 1238, 1342, 1149, 1410, 2669, 2773, 2580, 2841
1346, 1360, 1260, 1135, 1413, 2791, 2691, 2566, 2844
1347, 1185, 1420, 1415, 1112, 2616, 2851, 2846, 2543
1348, 1415, 1420, 1184, 1308, 2846, 2851, 2615, 2739
1349, 1361, 1256, 1109, 1417, 2792, 2687, 2540, 2848
1350, 1190, 1110, 1255, 1416, 2621, 2541, 2686, 2847
1351, 1290, 1126, 1340, 1398, 2721, 2557, 2771, 2829
1352, 1399, 1132, 1197, 1419, 2830, 2563, 2628, 2850
1353, 1248, 1303, 1108, 1257, 2679, 2734, 2539, 2688
1354, 1207, 1302, 1152, 1261, 2638, 2733, 2583, 2692
1355, 1363, 1219, 1142, 1422, 2794, 2650, 2573, 2853
1356, 1107, 1426, 1425, 1268, 2538, 2857, 2856, 2699
1357, 1225, 1230, 1154, 1427, 2656, 2661, 2585, 2858
1358, 1265, 1157, 1429, 1430, 2696, 2588, 2860, 2861
1359, 1555, 1696, 1440, 1432, 2986, 3127, 2871, 2863
1360, 1696, 1697, 1441, 1440, 3127, 3128, 2872, 2871
1361, 1697, 1698, 1442, 1441, 3128, 3129, 2873, 2872
1362, 1698, 1699, 1443, 1442, 3129, 3130, 2874, 2873
1363, 1699, 1700, 1444, 1443, 3130, 3131, 2875, 2874
1364, 1700, 1701, 1445, 1444, 3131, 3132, 2876, 2875
1365, 1701, 1702, 1446, 1445, 3132, 3133, 2877, 2876
1366, 1702, 1703, 1447, 1446, 3133, 3134, 2878, 2877
1367, 1703, 1704, 1448, 1447, 3134, 3135, 2879, 2878
1368, 1704, 1705, 1449, 1448, 3135, 3136, 2880, 2879
1369, 1705, 1706, 1450, 1449, 3136, 3137, 2881, 2880
1370, 1706, 1707, 1451, 1450, 3137, 3138, 2882, 2881
1371, 1707, 1708, 1452, 1451, 3138, 3139, 2883, 2882
1372, 1708, 1709, 1453, 1452, 3139, 3140, 2884, 2883
1373, 1709, 1710, 1454, 1453, 3140, 3141, 2885, 2884
1374, 1710, 1711, 1455, 1454, 3141, 3142, 2886, 2885
1375, 1711, 1712, 1456, 1455, 3142, 3143, 2887, 2886
1376, 1712, 1713, 1457, 1456, 3143, 3144, 2888, 2887
1377, 1713, 1714, 1458, 1457, 3144, 3145, 2889, 2888
1378, 1714, 1715, 1459, 1458, 3145, 3146, 2890, 2889
1379, 1715, 1716, 1460, 1459, 3146, 3147, 2891, 2890
1380, 1716, 1717, 1461, 1460, 3147, 3148, 2892, 2891
1381, 1717, 1718, 1462, 1461, 3148, 3149, 2893, 2892
1382, 1718, 1719, 1463, 1462, 3149, 3150, 2894, 2893
1383, 1719, 1720, 1464, 1463, 3150, 3151, 2895, 2894
1384, 1720, 1721, 1465, 1464, 3151, 3152, 2896, 2895
1385, 1721, 1722, 1466, 1465, 3152, 3153, 2897, 2896
1386, 1722, 1723, 1467, 1466, 3153, 3154, 2898, 2897
1387, 1723, 1724, 1468, 1467, 3154, 3155, 2899, 2898
1388, 1724, 1469, 1433, 1468, 3155, 2900, 2864, 2899
1389, 1554, 1725, 1696, 1555, 2985, 3156, 3127, 2986
1390, 1725, 1726, 1697, 1696, 3156, 3157, 3128, 3127
1391, 1726, 1727, 1698, 1697, 3157, 3158, 3129, 3128
1392, 1727, 1728, 1699, 1698, 3158, 3159, 3130, 3129
1393, 1728, 1729, 1700, 1699, 3159, 3160, 3131, 3130
1394, 1729, 1730, 1701, 1700, 3160, 3161, 3132, 3131
1395, 1730, 1731, 1702, 1701, 3161, 3162, 3133, 3132
1396, 1731, 1732, 1703, 1702, 3162, 3163, 3134, 3133
1397, 1732, 1733, 1704, 1703, 3163, 3164, 3135, 3134
1398, 1733, 1734, 1705, 1704, 3164, 3165, 3136, 3135
1399, 1734, 1735, 1706, 1705, 3165, 3166, 3137, 3136
1400, 1735, 1736, 1707, 1706, 3166, 3167, 3138, 3137
1401, 1736, 1737, 1708, 1707, 3167, 3168, 3139, 3138
1402, 1737, 1738, 1709, 1708, 3168, 3169, 3140, 3139
1403, 1738, 1739, 1710, 1709, 3169, 3170, 3141, 3140
1404, 1739, 1740, 1711, 1710, 3170, 3171, 3142, 3141
1405, 1740, 1741, 1712, 1711, 3171, 3172, 3143, 3142
1406, 1741, 1742, 1713, 1712, 3172, 3173, 3144, 3143
1407, 1742, 1743, 1714, 1713, 3173, 3174, 3145, 3144
1408, 1743, 1744, 1715, 1714, 3174, 3175, 3146, 3145
1409, 1744, 1745, 1716, 1715, 3175, 3176, 3147, 3146
1410, 1745, 1746, 1717, 1716, 3176, 3177, 3148, 3147
1411, 1746, 1747, 1718, 1717, 3177, 3178, 3149, 3148
1412, 1747, 1748, 1719, 1718, 3178, 3179, 3150, 3149
1413, 1748, 1749, 1720, 1719, 3179, 3180, 3151, 3150
1414, 1749, 1750, 1721, 1720, 3180, 3181, 3152, 3151
1415, 1750, 1751, 1722, 1721, 3181, 3182, 3153, 3152
1416, 1751, 1752, 1723, 1722, 3182, 3183, 3154, 3153
1417, 1752, 1753, 1724, 1723, 3183, 3184, 3155, 3154
1418, 1753, 1470, 1469, 1724, 3184, 2901, 2900, 3155
1419, 1553, 1754, 1725, 1554, 2984, 3185, 3156, 2985
1420, 1754, 1755, 1726, 1725, 3185, 3186, 3157, 3156
1421, 1755, 1756, 1727, 1726, 3186, 3187, 3158, 3157
1422, 1756, 1757, 1728, 1727, 3187, 3188, 3159, 3158
1423, 1757, 1758, 1729, 1728, 3188, 3189, 3160, 3159
1424, 1758, 1759, 1730, 1729, 3189, 3190, 3161, 3160
1425, 1759, 1760, 1731, 1730, 3190, 3191, 3162, 3161
1426, 1760, 1761, 1732, 1731, 3191, 3192, 3163, 3162
1427, 1761, 1762, 1733, 1732, 3192, 3193, 3164, 3163
1428, 1762, 1763, 1734, 1733, 3193, 3194, 3165, 3164
1429, 1763, 1764, 1735, 1734, 3194, 3195, 3166, 3165
1430, 1764, 1765, 1736, 1735, 3195, 3196, 3167, 3166
1431, 1765, 1766, 1737, 1736, 3196, 3197, 3168, 3167
1432, 1766, 1767, 1738, 1737, 3197, 3198, 3169, 3168
1433, 1767, 1768, 1739, 1738, 3198, 3199, 3170, 3169
1434, 1768, 1769, 1740, 1739, 3199, 3200, 3171, 3170
1435, 1769, 1770, 1741, 1740, 3200, 3201, 3172, 3171
1436, 1770, 1771, 1742, 1741, 3201, 3202, 3173, 3172
1437, 1771, 1772, 1743, 1742, 3202, 3203, 3174, 3173
1438, 1772, 1773, 1744, 1743, 3203, 3204, 3175, 3174
1439, 1773, 1774, 1745, 1744, 3204, 3205, 3176, 3175
1440, 1774, 1775, 1746, 1745, 3205, 3206, 3177, 3176
1441, 1775, 1776, 1747, 1746, 3206, 3207, 3178, 3177
1442, 1776, 1777, 1748, 1747, 3207, 3208, 3179, 3178
1443, 1777, 1778, 1749, 1748, 3208, 3209, 3180, 3179
1444, 1778, 1779, 1750, 1749, 3209, 3210, 3181, 3180
1445, 1779, 1780, 1751, 1750, 3210, 3211, 3182, 3181
1446, 1780, 1781, 1752, 1751, 3211, 3212, 3183, 3182
1447, 1781, 1782, 1753, 1752, 3212, 3213, 3184, 3183
1448, 1782, 1471, 1470, 1753, 3213, 2902, 2901, 3184
1449, 1552, 1783, 1754, 1553, 2983, 3214, 3185, 2984
1450, 1783, 1784, 1755, 1754, 3214, 3215, 3186, 3185
1451, 1784, 1785, 1756, 1755, 3215, 3216, 3187, 3186
1452, 1785, 1786, 1757, 1756, 3216, 3217, 3188, 3187
1453, 1786, 1787, 1758, 1757, 3217, 3218, 3189, 3188
1454, 1787, 1788, 1759, 1758, 3218, 3219, 3190, 3189
1455, 1788, 1789, 1760, 1759, 3219, 3220, 3191, 3190
1456, 1789, 1790, 1761, 1760, 3220, 3221, 3192, 3191
1457, 1790, 1791, 1762, 1761, 3221, 3222, 3193, 3192
1458, 1791, 1792, 1763, 1762, 3222, 3223, 3194, 3193
1459, 1792, 1793, 1764, 1763, 3223, 3224, 3195, 3194
1460, 1793, 1794, 1765, 1764, 3224, 3225, 3196, 3195
1461, 1794, 1795, 1766, 1765, 3225, 3226, 3197, 3196
1462, 1795, 1796, 1767, 1766, 3226, 3227, 3198, 3197
1463, 1796, 1797, 1768, 1767, 3227, 3228, 3199, 3198
1464, 1797, 1798, 1769, 1768, 3228, 3229, 3200, 3199
1465, 1798, 1799, 1770, 1769, 3229, 3230, 3201, 3200
1466, 1799, 1800, 1771, 1770, 3230, 3231, 3202, 3201
1467, 1800, 1801, 1772, 1771, 3231, 3232, 3203, 3202
1468, 1801, 1802, 1773, 1772, 3232, 3233, 3204, 3203
1469, 1802, 1803, 1774, 1773, 3233, 3234, 3205, 3204
1470, 1803, 1804, 1775, 1774, 3234, 3235, 3206, 3205
1471, 1804, 1805, 1776, 1775, 3235, 3236, 3207, 3206
1472, 1805, 1806, 1777, 1776, 3236, 3237, 3208, 3207
1473, 1806, 1807, 1778, 1777, 3237, 3238, 3209, 3208
1474, 1807, 1808, 1779, 1778, 3238, 3239, 3210, 3209
1475, 1808, 1809, 1780, 1779, 3239, 3240, 3211, 3210
1476, 1809, 1810, 1781, 1780, 3240, 3241, 3212, 3211
1477, 1810, 1811, 1782, 1781, 3241, 3242, 3213, 3212
1478, 1811, 1472, 1471, 1782, 3242, 2903, 2902, 3213
1479, 1551, 1812, 1783, 1552, 2982, 3243, 3214, 2983
1480, 1812, 1813, 1784, 1783, 3243, 3244, 3215, 3214
1481, 1813, 1814, 1785, 1784, 3244, 3245, 3216, 3215
1482, 1814, 1815, 1786, 1785, 3245, 3246, 3217, 3216
1483, 1815, 1816, 1787, 1786, 3246, 3247, 3218, 3217
1484, 1816, 1817, 1788, 1787, 3247, 3248, 3219, 3218
1485, 1817, 1818, 1789, 1788, 3248, 3249, 3220, 3219
1486, 1818, 1819, 1790, 1789, 3249, 3250, 3221, 3220
1487, 1819, 1820, 1791, 1790, 3250, 3251, 3222, 3221
1488, 1820, 1821, 1792, 1791, 3251, 3252, 3223, 3222
1489, 1821, 1822, 1793, 1792, 3252, 3253, 3224, 3223
1490, 1822, 1823, 1794, 1793, 3253, 3254, 3225, 3224
1491, 1823, 1824, 1795, 1794, 3254, 3255, 3226, 3225
1492, 1824, 1825, 1796, 1795, 3255, 3256, 3227, 3226
1493, 1825, 1826, 1797, 1796, 3256, 3257, 3228, 3227
1494, 1826, 1827, 1798, 1797, 3257, 3258, 3229, 3228
1495, 1827, 1828, 1799, 1798, 3258, 3259, 3230, 3229
1496, 1828, 1829, 1800, 1799, 3259, 3260, 3231, 3230
1497, 1829, 1830, 1801, 1800, 3260, 3261, 3232, 3231
1498, 1830, 1831, 1802, 1801, 3261, 3262, 3233, 3232
1499, 1831, 1832, 1803, 1802, 3262, 3263, 3234, 3233
1500, 1832, 1833, 1804, 1803, 3263, 3264, 3235, 3234
1501, 1833, 1834, 1805, 1804, 3264, 3265, 3236, 3235
1502, 1834, 1835, 1806, 1805, 3265, 3266, 3237, 3236
1503, 1835, 1836, 1807, 1806, 3266, 3267, 3238, 3237
1504, 1836, 1837, 1808, 1807, 3267, 3268, 3239, 3238
1505, 1837, 1838, 1809, 1808, 3268, 3269, 3240, 3239
1506, 1838, 1839, 1810, 1809, 3269, 3270, 3241, 3240
1507, 1839, 1840, 1811, 1810, 3270, 3271, 3242, 3241
1508, 1840, 1473, 1472, 1811, 3271, 2904, 2903, 3242
1509, 1550, 1841, 1812, 1551, 2981, 3272, 3243, 2982
1510, 1841, 1842, 1813, 1812, 3272, 3273, 3244, 3243
1511, 1842, 1843, 1814, 1813, 3273, 3274, 3245, 3244
1512, 1843, 1844, 1815, 1814, 3274, 3275, 3246, 3245
1513, 1844, 1845, 1816, 1815, 3275, 3276, 3247, 3246
1514, 1845, 1846, 1817, 1816, 3276, 3277, 3248, 3247
1515, 1846, 1847, 1818, 1817, 3277, 3278, 3249, 3248
1516, 1847, 1848, 1819, 1818, 3278, 3279, 3250, 3249
1517, 1848, 1849, 1820, 1819, 3279, 3280, 3251, 3250
1518, 1849, 1850, 1821, 1820, 3280, 3281, 3252, 3251
1519, 1850, 1851, 1822, 1821, 3281, 3282, 3253, 3252
1520, 1851, 1852, 1823, 1822, 3282, 3283, 3254, 3253
1521, 1852, 1853, 1824, 1823, 3283, 3284, 3255, 3254
1522, 1853, 1854, 1825, 1824, 3284, 3285, 3256, 3255
1523, 1854, 1855, 1826, 1825, 3285, 3286, 3257, 3256
1524, 1855, 1856, 1827, 1826, 3286, 3287, 3258, 3257
1525, 1856, 1857, 1828, 1827, 3287, 3288, 3259, 3258
1526, 1857, 1858, 1829, 1828, 3288, 3289, 3260, 3259
1527, 1858, 1859, 1830, 1829, 3289, 3290, 3261, 3260
1528, 1859, 1860, 1831, 1830, 3290, 3291, 3262, 3261
1529, 1860, 1861, 1832, 1831, 3291, 3292, 3263, 3262
1530, 1861, 1862, 1833, 1832, 3292, 3293, 3264, 3263
1531, 1862, 1863, 1834, 1833, 3293, 3294, 3265, 3264
1532, 1863, 1864, 1835, 1834, 3294, 3295, 3266, 3265
1533, 1864, 1865, 1836, 1835, 3295, 3296, 3267, 3266
1534, 1865, 1866, 1837, 1836, 3296, 3297, 3268, 3267
1535, 1866, 1867, 1838, 1837, 3297, 3298, 3269, 3268
1536, 1867, 1868, 1839, 1838, 3298, 3299, 3270, 3269
1537, 1868, 1869, 1840, 1839, 3299, 3300, 3271, 3270
1538, 1869, 1474, 1473, 1840, 3300, 2905, 2904, 3271
1539, 1549, 1870, 1841, 1550, 2980, 3301, 3272, 2981
1540, 1870, 1871, 1842, 1841, 3301, 3302, 3273, 3272
1541, 1871, 1872, 1843, 1842, 3302, 3303, 3274, 3273
1542, 1872, 1873, 1844, 1843, 3303, 3304, 3275, 3274
1543, 1873, 1874, 1845, 1844, 3304, 3305, 3276, 3275
1544, 1874, 1875, 1846, 1845, 3305, 3306, 3277, 3276
1545, 1875, 1876, 1847, 1846, 3306, 3307, 3278, 3277
1546, 1876, 1877, 1848, 1847, 3307, 3308, 3279, 3278
1547, 1877, 1878, 1849, 1848, 3308, 3309, 3280, 3279
1548, 1878, 1879, 1850, 1849, 3309, 3310, 3281, 3280
1549, 1879, 1880, 1851, 1850, 3310, 3311, 3282, 3281
1550, 1880, 1881, 1852, 1851, 3311, 3312, 3283, 3282
1551, 1881, 1882, 1853, 1852, 3312, 3313, 3284, 3283
1552, 1882, 1883, 1854, 1853, 3313, 3314, 3285, 3284
1553, 1883, 1884, 1855, 1854, 3314, 3315, 3286, 3285
1554, 1884, 1885, 1856, 1855, 3315, 3316, 3287, 3286
1555, 1885, 1886, 1857, 1856, 3316, 3317, 3288, 3287
1556, 1886, 1887, 1858, 1857, 3317, 3318, 3289, 3288
1557, 1887, 1888, 1859, 1858, 3318, 3319, 3290, 3289
1558, 1888, 1889, 1860, 1859, 3319, 3320, 3291, 3290
1559, 1889, 1890, 1861, 1860, 3320, 3321, 3292, 3291
1560, 1890, 1891, 1862, 1861, 3321, 3322, 3293, 3292
1561, 1891, 1892, 1863, 1862, 3322, 3323, 3294, 3293
1562, 1892, 1893, 1864, 1863, 3323, 3324, 3295, 3294
1563, 1893, 1894, 1865, 1864, 3324, 3325, 3296, 3295
1564, 1894, 1895, 1866, 1865, 3325, 3326, 3297, 3296
1565, 1895, 1896, 1867, 1866, 3326, 3327, 3298, 3297
1566, 1896, 1897, 1868, 1867, 3327, 3328, 3299, 3298
1567, 1897, 1898, 1869, 1868, 3328, 3329, 3300, 3299
1568, 1898, 1475, 1474, 1869, 3329, 2906, 2905, 3300
1569, 1548, 1899, 1870, 1549, 2979, 3330, 3301, 2980
1570, 1899, 1900, 1871, 1870, 3330, 3331, 3302, 3301
1571, 1900, 1901, 1872, 1871, 3331, 3332, 3303, 3302
1572, 1901, 1902, 1873, 1872, 3332, 3333, 3304, 3303
1573, 1902, 1903, 1874, 1873, 3333, 3334, 3305, 3304
1574, 1903, 1904, 1875, 1874, 3334, 3335, 3306, 3305
1575, 1904, 1905, 1876, 1875, 3335, 3336, 3307, 3306
1576, 1905, 1906, 1877, 1876, 3336, 3337, 3308, 3307
1577, 1906, 1907, 1878, 1877, 3337, 3338, 3309, 3308
1578, 1907, 1908, 1879, 1878, 3338, 3339, 3310, 3309
1579, 1908, 1909, 1880, 1879, 3339, 3340, 3311, 3310
1580, 1909, 1910, 1881, 1880, 3340, 3341, 3312, 3311
1581, 1910, 1911, 1882, 1881, 3341, 3342, 3313, 3312
1582, 1911, 1912, 1883, 1882, 3342, 3343, 3314, 3313
1583, 1912, 1913, 1884, 1883, 3343, 3344, 3315, 3314
1584, 1913, 1914, 1885, 1884, 3344, 3345, 3316, 3315
1585, 1914, 1915, 1886, 1885, 3345, 3346, 3317, 3316
1586, 1915, 1916, 1887, 1886, 3346, 3347, 3318, 3317
1587, 1916, 1917, 1888, 1887, 3347, 3348, 3319, 3318
1588, 1917, 1918, 1889, 1888, 3348, 3349, 3320, 3319
1589, 1918, 1919, 1890, 1889, 3349, 3350, 3321, 3320
1590, 1919, 1920, 1891, 1890, 3350, 3351, 3322, 3321
1591, 1920, 1921, 1892, 1891, 3351, 3352, 3323, 3322
1592, 1921, 1922, 1893, 1892, 3352, 3353, 3324, 3323
1593, 1922, 1923, 1894, 1893, 3353, 3354, 3325, 3324
1594, 1923, 1924, 1895, 1894, 3354, 3355, 3326, 3325
1595, 1924, 1925, 1896, 1895, 3355, 3356, 3327, 3326
1596, 1925, 1926, 1897, 1896, 3356, 3357, 3328, 3327
1597, 1926, 1927, 1898, 1897, 3357, 3358, 3329, 3328
1598, 1927, 1476, 1475, 1898, 3358, 2907, 2906, 3329
1599, 1547, 1928, 1899, 1548, 2978, 3359, 3330, 2979
1600, 1928, 1929, 1900, 1899, 3359, 3360, 3331, 3330
1601, 1929, 1930, 1901, 1900, 3360, 3361, 3332, 3331
1602, 1930, 1931, 1902, 1901, 3361, 3362, 3333, 3332
1603, 1931, 1932, 1903, 1902, 3362, 3363, 3334, 3333
1604, 1932, 1933, 1904, 1903, 3363, 3364, 3335, 3334
1605, 1933, 1934, 1905, 1904, 3364, 3365, 3336, 3335
1606, 1934, 1935, 1906, 1905, 3365, 3366, 3337, 3336
1607, 1935, 1936, 1907, 1906, 3366, 3367, 3338, 3337
1608, 1936, 1937, 1908, 1907, 3367, 3368, 3339, 3338
1609, 1937, 1938, 1909, 1908, 3368, 3369, 3340, 3339
1610, 1938, 1939, 1910, 1909, 3369, 3370, 3341, 3340
1611, 1939, 1940, 1911, 1910, 3370, 3371, 3342, 3341
1612, 1940, 1941, 1912, 1911, 3371, 3372, 3343, 3342
1613, 1941, 1942, 1913, 1912, 3372, 3373, 3344, 3343
1614, 1942, 1943, 1914, 1913, 3373, 3374, 3345, 3344
1615, 1943, 1944, 1915, 1914, 3374, 3375, 3346, 3345
1616, 1944, 1945, 1916, 1915, 3375, 3376, 3347, 3346
1617, 1945, 1946, 1917, 1916, 3376, 3377, 3348, 3347
1618, 1946, 1947, 1918, 1917, 3377, 3378, 3349, 3348
1619, 1947, 1948, 1919, 1918, 3378, 3379, 3350, 3349
1620, 1948, 1949, 1920, 1919, 3379, 3380, 3351, 3350
1621, 1949, 1950, 1921, 1920, 3380, 3381, 3352, 3351
1622, 1950, 1951, 1922, 1921, 3381, 3382, 3353, 3352
1623, 1951, 1952, 1923, 1922, 3382, 3383, 3354, 3353
1624, 1952, 1953, 1924, 1923, 3383, 3384, 3355, 3354
1625, 1953, 1954, 1925, 1924, 3384, 3385, 3356, 3355
1626, 1954, 1955, 1926, 1925, 3385, 3386, 3357, 3356
1627, 1955, 1956, 1927, 1926, 3386, 3387, 3358, 3357
1628, 1956, 1477, 1476, 1927, 3387, 2908, 2907, 3358
1629, 1546, 1957, 1928, 1547, 2977, 3388, 3359, 2978
1630, 1957, 1958, 1929, 1928, 3388, 3389, 3360, 3359
1631, 1958, 1959, 1930, 1929, 3389, 3390, 3361, 3360
1632, 1959, 1960, 1931, 1930, 3390, 3391, 3362, 3361
1633, 1960, 1961, 1932, 1931, 3391, 3392, 3363, 3362
1634, 1961, 1962, 1933, 1932, 3392, 3393, 3364, 3363
1635, 1962, 1963, 1934, 1933, 3393, 3394, 3365, 3364
1636, 1963, 1964, 1935, 1934, 3394, 3395, 3366, 3365
1637, 1964, 1965, 1936, 1935, 3395, 3396, 3367, 3366
1638, 1965, 1966, 1937, 1936, 3396, 3397, 3368, 3367
1639, 1966, 1967, 1938, 1937, 3397, 3398, 3369, 3368
1640, 1967, 1968, 1939, 1938, 3398, 3399, 3370, 3369
1641, 1968, 1969, 1940, 1939, 3399, 3400, 3371, 3370
1642, 1969, 1970, 1941, 1940, 3400, 3401, 3372, 3371
1643, 1970, 1971, 1942, 1941, 3401, 3402, 3373, 3372
1644, 1971, 1972, 1943, 1942, 3402, 3403, 3374, 3373
1645, 1972, 1973, 1944, 1943, 3403, 3404, 3375, 3374
1646, 1973, 1974, 1945, 1944, 3404, 3405, 3376, 3375
1647, 1974, 1975, 1946, 1945, 3405, 3406, 3377, 3376
1648, 1975, 1976, 1947, 1946, 3406, 3407, 3378, 3377
1649, 1976, 1977, 1948, 1947, 3407, 3408, 3379, 3378
1650, 1977, 1978, 1949, 1948, 3408, 3409, 3380, 3379
1651, 1978, 1979, 1950, 1949, 3409, 3410, 3381, 3380
1652, 1979, 1980, 1951, 1950, 3410, 3411, 3382, 3381
1653, 1980, 1981, 1952, 1951, 3411, 3412, 3383, 3382
1654, 1981, 1982, 1953, 1952, 3412, 3413, 3384, 3383
1655, 1982, 1983, 1954, 1953, 3413, 3414, 3385, 3384
1656, 1983, 1984, 1955, 1954, 3414, 3415, 3386, 3385
1657, 1984, 1985, 1956, 1955, 3415, 3416, 3387, 3386
1658, 1985, 1478, 1477, 1956, 3416, 2909, 2908, 3387
1659, 1545, 1986, 1957, 1546, 2976, 3417, 3388, 2977
1660, 1986, 1987, 1958, 1957, 3417, 3418, 3389, 3388
1661, 1987, 1988, 1959, 1958, 3418, 3419, 3390, 3389
1662, 1988, 1989, 1960, 1959, 3419, 3420, 3391, 3390
1663, 1989, 1990, 1961, 1960, 3420, 3421, 3392, 3391
1664, 1990, 1991, 1962, 1961, 3421, 3422, 3393, 3392
1665, 1991, 1992, 1963, 1962, 3422, 3423, 3394, 3393
1666, 1992, 1993, 1964, 1963, 3423, 3424, 3395, 3394
1667, 1993, 1994, 1965, 1964, 3424, 3425, 3396, 3395
1668, 1994, 1995, 1966, 1965, 3425, 3426, 3397, 3396
1669, 1995, 1996, 1967, 1966, 3426, 3427, 3398, 3397
1670, 1996, 1997, 1968, 1967, 3427, 3428, 3399, 3398
1671, 1997, 1998, 1969, 1968, 3428, 3429, 3400, 3399
1672, 1998, 1999, 1970, 1969, 3429, 3430, 3401, 3400
1673, 1999, 2000, 1971, 1970, 3430, 3431, 3402, 3401
1674, 2000, 2001, 1972, 1971, 3431, 3432, 3403, 3402
1675, 2001, 2002, 1973, 1972, 3432, 3433, 3404, 3403
1676, 2002, 2003, 1974, 1973, 3433, 3434, 3405, 3404
1677, 2003, 2004, 1975, 1974, 3434, 3435, 3406, 3405
1678, 2004, 2005, 1976, 1975, 3435, 3436, 3407, 3406
1679, 2005, 2006, 1977, 1976, 3436, 3437, 3408, 3407
1680, 2006, 2007, 1978, 1977, 3437, 3438, 3409, 3408
1681, 2007, 2008, 1979, 1978, 3438, 3439, 3410, 3409
1682, 2008, 2009, 1980, 1979, 3439, 3440, 3411, 3410
1683, 2009, 2010, 1981, 1980, 3440, 3441, 3412, 3411
1684, 2010, 2011, 1982, 1981, 3441, 3442, 3413, 3412
1685, 2011, 2012, 1983, 1982, 3442, 3443, 3414, 3413
1686, 2012, 2013, 1984, 1983, 3443, 3444, 3415, 3414
1687, 2013, 2014, 1985, 1984, 3444, 3445, 3416, 3415
1688, 2014, 1479, 1478, 1985, 3445, 2910, 2909, 3416
1689, 1544, 2015, 1986, 1545, 2975, 3446, 3417, 2976
1690, 2015, 2016, 1987, 1986, 3446, 3447, 3418, 3417
1691, 2016, 2017, 1988, 1987, 3447, 3448, 3419, 3418
1692, 2017, 2018, 1989, 1988, 3448, 3449, 3420, 3419
1693, 2018, 2019, 1990, 1989, 3449, 3450, 3421, 3420
1694, 2019, 2020, 1991, 1990, 3450, 3451, 3422, 3421
1695, 2020, 2021, 1992, 1991, 3451, 3452, 3423, 3422
1696, 2021, 2022, 1993, 1992, 3452, 3453, 3424, 3423
1697, 2022, 2023, 1994, 1993, 3453, 3454, 3425, 3424
1698, 2023, 2024, 1995, 1994, 3454, 3455, 3426, 3425
1699, 2024, 2025, 1996, 1995, 3455, 3456, 3427, 3426
1700, 2025, 2026, 1997, 1996, 3456, 3457, 3428, 3427
1701, 2026, 2027, 1998, 1997, 3457, 3458, 3429, 3428
1702, 2027, 2028, 1999, 1998, 3458, 3459, 3430, 3429
1703, 2028, 2029, 2000, 1999, 3459, 3460, 3431, 3430
1704, 2029, 2030, 2001, 2000, 3460, 3461, 3432, 3431
1705, 2030, 2031, 2002, 2001, 3461, 3462, 3433, 3432
1706, 2031, 2032, 2003, 2002, 3462, 3463, 3434, 3433
1707, 2032, 2033, 2004, 2003, 3463, 3464, 3435, 3434
1708, 2033, 2034, 2005, 2004, 3464, 3465, 3436, 3435
1709, 2034, 2035, 2006, 2005, 3465, 3466, 3437, 3436
1710, 2035, 2036, 2007, 2006, 3466, 3467, 3438, 3437
1711, 2036, 2037, 2008, 2007, 3467, 3468, 3439, 3438
1712, 2037, 2038, 2009, 2008, 3468, 3469, 3440, 3439
1713, 2038, 2039, 2010, 2009, 3469, 3470, 3441, 3440
1714, 2039, 2040, 2011, 2010, 3470, 3471, 3442, 3441
1715, 2040, 2041, 2012, 2011, 3471, 3472, 3443, 3442
1716, 2041, 2042, 2013, 2012, 3472, 3473, 3444, 3443
1717, 2042, 2043, 2014, 2013, 3473, 3474, 3445, 3444
1718, 2043, 1480, 1479, 2014, 3474, 2911, 2910, 3445
1719, 1543, 2044, 2015, 1544, 2974, 3475, 3446, 2975
1720, 2044, 2045, 2016, 2015, 3475, 3476, 3447, 3446
1721, 2045, 2046, 2017, 2016, 3476, 3477, 3448, 3447
1722, 2046, 2047, 2018, 2017, 3477, 3478, 3449, 3448
1723, 2047, 2048, 2019, 2018, 3478, 3479, 3450, 3449
1724, 2048, 2049, 2020, 2019, 3479, 3480, 3451, 3450
1725, 2049, 2050, 2021, 2020, 3480, 3481, 3452, 3451
1726, 2050, 2051, 2022, 2021, 3481, 3482, 3453, 3452
1727, 2051, 2052, 2023, 2022, 3482, 3483, 3454, 3453
1728, 2052, 2053, 2024, 2023, 3483, 3484, 3455, 3454
1729, 2053, 2054, 2025, 2024, 3484, 3485, 3456, 3455
1730, 2054, 2055, 2026, 2025, 3485, 3486, 3457, 3456
1731, 2055, 2056, 2027, 2026, 3486, 3487, 3458, 3457
1732, 2056, 2057, 2028, 2027, 3487, 3488, 3459, 3458
1733, 2057, 2058, 2029, 2028, 3488, 3489, 3460, 3459
1734, 2058, 2059, 2030, 2029, 3489, 3490, 3461, 3460
1735, 2059, 2060, 2031, 2030, 3490, 3491, 3462, 3461
1736, 2060, 2061, 2032, 2031, 3491, 3492, 3463, 3462
1737, 2061, 2062, 2033, 2032, 3492, 3493, 3464, 3463
1738, 2062, 2063, 2034, 2033, 3493, 3494, 3465, 3464
1739, 2063, 2064, 2035, 2034, 3494, 3495, 3466, 3465
1740, 2064, 2065, 2036, 2035, 3495, 3496, 3467, 3466
1741, 2065, 2066, 2037, 2036, 3496, 3497, 3468, 3467
1742, 2066, 2067, 2038, 2037, 3497, 3498, 3469, 3468
1743, 2067, 2068, 2039, 2038, 3498, 3499, 3470, 3469
1744, 2068, 2069, 2040, 2039, 3499, 3500, 3471, 3470
1745, 2069, 2070, 2041, 2040, 3500, 3501, 3472, 3471
1746, 2070, 2071, 2042, 2041, 3501, 3502, 3473, 3472
1747, 2071, 2072, 2043, 2042, 3502, 3503, 3474, 3473
1748, 2072, 1481, 1480, 2043, 3503, 2912, 2911, 3474
1749, 1542, 2073, 2044, 1543, 2973, 3504, 3475, 2974
1750, 2073, 2074, 2045, 2044, 3504, 3505, 3476, 3475
1751, 2074, 2075, 2046, 2045, 3505, 3506, 3477, 3476
1752, 2075, 2076, 2047, 2046, 3506, 3507, 3478, 3477
1753, 2076, 2077, 2048, 2047, 3507, 3508, 3479, 3478
1754, 2077, 2078, 2049, 2048, 3508, 3509, 3480, 3479
1755, 2078, 2079, 2050, 2049, 3509, 3510, 3481, 3480
1756, 2079, 2080, 2051, 2050, 3510, 3511, 3482, 3481
1757, 2080, 2081, 2052, 2051, 3511, 3512, 3483, 3482
1758, 2081, 2082, 2053, 2052, 3512, 3513, 3484, 3483
1759, 2082, 2083, 2054, 2053, 3513, 3514, 3485, 3484
1760, 2083, 2084, 2055, 2054, 3514, 3515, 3486, 3485
1761, 2084, 2085, 2056, 2055, 3515, 3516, 3487, 3486
1762, 2085, 2086, 2057, 2056, 3516, 3517, 3488, 3487
1763, 2086, 2087, 2058, 2057, 3517, 3518, 3489, 3488
1764, 2087, 2088, 2059, 2058, 3518, 3519, 3490, 3489
1765, 2088, 2089, 2060, 2059, 3519, 3520, 3491, 3490
1766, 2089, 2090, 2061, 2060, 3520, 3521, 3492, 3491
1767, 2090, 2091, 2062, 2061, 3521, 3522, 3493, 3492
1768, 2091, 2092, 2063, 2062, 3522, 3523, 3494, 3493
1769, 2092, 2093, 2064, 2063, 3523, 3524, 3495, 3494
1770, 2093, 2094, 2065, 2064, 3524, 3525, 3496, 3495
1771, 2094, 2095, 2066, 2065, 3525, 3526, 3497, 3496
1772, 2095, 2096, 2067, 2066, 3526, 3527, 3498, 3497
1773, 2096, 2097, 2068, 2067, 3527, 3528, 3499, 3498
1774, 2097, 2098, 2069, 2068, 3528, 3529, 3500, 3499
1775, 2098, 2099, 2070, 2069, 3529, 3530, 3501, 3500
1776, 2099, 2100, 2071, 2070, 3530, 3531, 3502, 3501
1777, 2100, 2101, 2072, 2071, 3531, 3532, 3503, 3502
1778, 2101, 1482, 1481, 2072, 3532, 2913, 2912, 3503
1779, 1541, 2102, 2073, 1542, 2972, 3533, 3504, 2973
1780, 2102, 2103, 2074, 2073, 3533, 3534, 3505, 3504
1781, 2103, 2104, 2075, 2074, 3534, 3535, 3506, 3505
1782, 2104, 2105, 2076, 2075, 3535, 3536, 3507, 3506
1783, 2105, 2106, 2077, 2076, 3536, 3537, 3508, 3507
1784, 2106, 2107, 2078, 2077, 3537, 3538, 3509, 3508
1785, 2107, 2108, 2079, 2078, 3538, 3539, 3510, 3509
1786, 2108, 2109, 2080, 2079, 3539, 3540, 3511, 3510
1787, 2109, 2110, 2081, 2080, 3540, 3541, 3512, 3511
1788, 2110, 2111, 2082, 2081, 3541, 3542, 3513, 3512
1789, 2111, 2112, 2083, 2082, 3542, 3543, 3514, 3513
1790, 2112, 2113, 2084, 2083, 3543, 3544, 3515, 3514
1791, 2113, 2114, 2085, 2084, 3544, 3545, 3516, 3515
1792, 2114, 2115, 2086, 2085, 3545, 3546, 3517, 3516
1793, 2115, 2116, 2087, 2086, 3546, 3547, 3518, 3517
1794, 2116, 2117, 2088, 2087, 3547, 3548, 3519, 3518
1795, 2117, 2118, 2089, 2088, 3548, 3549, 3520, 3519
1796, 2118, 2119, 2090, 2089, 3549, 3550, 3521, 3520
1797, 2119, 2120, 2091, 2090, 3550, 3551, 3522, 3521
1798, 2120, 2121, 2092, 2091, 3551, 3552, 3523, 3522
1799, 2121, 2122, 2093, 2092, 3552, 3553, 3524, 3523
1800, 2122, 2123, 2094, 2093, 3553, 3554, 3525, 3524
1801, 2123, 2124, 2095, 2094, 3554, 3555, 3526, 3525
1802, 2124, 2125, 2096, 2095, 3555, 3556, 3527, 3526
1803, 2125, 2126, 2097, 2096, 3556, 3557, 3528, 3527
1804, 2126, 2127, 2098, 2097, 3557, 3558, 3529, 3528
1805, 2127, 2128, 2099, 2098, 3558, 3559, 3530, 3529
1806, 2128, 2129, 2100, 2099, 3559, 3560, 3531, 3530
1807, 2129, 2130, 2101, 2100, 3560, 3561, 3532, 3531
1808, 2130, 1483, 1482, 2101, 3561, 2914, 2913, 3532
1809, 1540, 2131, 2102, 1541, 2971, 3562, 3533, 2972
1810, 2131, 2132, 2103, 2102, 3562, 3563, 3534, 3533
1811, 2132, 2133, 2104, 2103, 3563, 3564, 3535, 3534
1812, 2133, 2134, 2105, 2104, 3564, 3565, 3536, 3535
1813, 2134, 2135, 2106, 2105, 3565, 3566, 3537, 3536
1814, 2135, 2136, 2107, 2106, 3566, 3567, 3538, 3537
1815, 2136, 2137, 2108, 2107, 3567, 3568, 3539, 3538
1816, 2137, 2138, 2109, 2108, 3568, 3569, 3540, 3539
1817, 2138, 2139, 2110, 2109, 3569, 3570, 3541, 3540
1818, 2139, 2140, 2111, 2110, 3570, 3571, 3542, 3541
1819, 2140, 2141, 2112, 2111, 3571, 3572, 3543, 3542
1820, 2141, 2142, 2113, 2112, 3572, 3573, 3544, 3543
1821, 2142, 2143, 2114, 2113, 3573, 3574, 3545, 3544
1822, 2143, 2144, 2115, 2114, 3574, 3575, 3546, 3545
1823, 2144, 2145, 2116, 2115, 3575, 3576, 3547, 3546
1824, 2145, 2146, 2117, 2116, 3576, 3577, 3548, 3547
1825, 2146, 2147, 2118, 2117, 3577, 3578, 3549, 3548
1826, 2147, 2148, 2119, 2118, 3578, 3579, 3550, 3549
1827, 2148, 2149, 2120, 2119, 3579, 3580, 3551, 3550
1828, 2149, 2150, 2121, 2120, 3580, 3581, 3552, 3551
1829, 2150, 2151, 2122, 2121, 3581, 3582, 3553, 3552
1830, 2151, 2152, 2123, 2122, 3582, 3583, 3554, 3553
1831, 2152, 2153, 2124, 2123, 3583, 3584, 3555, 3554
1832, 2153, 2154, 2125, 2124, 3584, 3585, 3556, 3555
1833, 2154, 2155, 2126, 2125, 3585, 3586, 3557, 3556
1834, 2155, 2156, 2127, 2126, 3586, 3587, 3558, 3557
1835, 2156, 2157, 2128, 2127, 3587, 3588, 3559, 3558
1836, 2157, 2158, 2129, 2128, 3588, 3589, 3560, 3559
1837, 2158, 2159, 2130, 2129, 3589, 3590, 3561, 3560
1838, 2159, 1484, 1483, 2130, 3590, 2915, 2914, 3561
1839, 1539, 2160, 2131, 1540, 2970, 3591, 3562, 2971
1840, 2160, 2161, 2132, 2131, 3591, 3592, 3563, 3562
1841, 2161, 2162, 2133, 2132, 3592, 3593, 3564, 3563
1842, 2162, 2163, 2134, 2133, 3593, 3594, 3565, 3564
1843, 2163, 2164, 2135, 2134, 3594, 3595, 3566, 3565
1844, 2164, 2165, 2136, 2135, 3595, 3596, 3567, 3566
1845, 2165, 2166, 2137, 2136, 3596, 3597, 3568, 3567
1846, 2166, 2167, 2138, 2137, 3597, 3598, 3569, 3568
1847, 2167, 2168, 2139, 2138, 3598, 3599, 3570, 3569
1848, 2168, 2169, 2140, 2139, 3599, 3600, 3571, 3570
1849, 2169, 2170, 2141, 2140, 3600, 3601, 3572, 3571
1850, 2170, 2171, 2142, 2141, 3601, 3602, 3573, 3572
1851, 2171, 2172, 2143, 2142, 3602, 3603, 3574, 3573
1852, 2172, 2173, 2144, 2143, 3603, 3604, 3575, 3574
1853, 2173, 2174, 2145, 2144, 3604, 3605, 3576, 3575
1854, 2174, 2175, 2146, 2145, 3605, 3606, 3577, 3576
1855, 2175, 2176, 2147, 2146, 3606, 3607, 3578, 3577
1856, 2176, 2177, 2148, 2147, 3607, 3608, 3579, 3578
1857, 2177, 2178, 2149, 2148, 3608, 3609, 3580, 3579
1858, 2178, 2179, 2150, 2149, 3609, 3610, 3581, 3580
1859, 2179, 2180, 2151, 2150, 3610, 3611, 3582, 3581
1860, 2180, 2181, 2152, 2151, 3611, 3612, 3583, 3582
1861, 2181, 2182, 2153, 2152, 3612, 3613, 3584, 3583
1862, 2182, 2183, 2154, 2153, 3613, 3614, 3585, 3584
1863, 2183, 2184, 2155, 2154, 3614, 3615, 3586, 3585
1864, 2184, 2185, 2156, 2155, 3615, 3616, 3587, 3586
1865, 2185, 2186, 2157, 2156, 3616, 3617, 3588, 3587
1866, 2186, 2187, 2158, 2157, 3617, 3618, 3589, 3588
1867, 2187, 2188, 2159, 2158, 3618, 3619, 3590, 3589
1868, 2188, 1485, 1484, 2159, 3619, 2916, 2915, 3590
1869, 1538, 2189, 2160, 1539, 2969, 3620, 3591, 2970
1870, 2189, 2190, 2161, 2160, 3620, 3621, 3592, 3591
1871, 2190, 2191, 2162, 2161, 3621, 3622, 3593, 3592
1872, 2191, 2192, 2163, 2162, 3622, 3623, 3594, 3593
1873, 2192, 2193, 2164, 2163, 3623, 3624, 3595, 3594
1874, 2193, 2194, 2165, 2164, 3624, 3625, 3596, 3595
1875, 2194, 2195, 2166, 2165, 3625, 3626, 3597, 3596
1876, 2195, 2196, 2167, 2166, 3626, 3627, 3598, 3597
1877, 2196, 2197, 2168, 2167, 3627, 3628, 3599, 3598
1878, 2197, 2198, 2169, 2168, 3628, 3629, 3600, 3599
1879, 2198, 2199, 2170, 2169, 3629, 3630, 3601, 3600
1880, 2199, 2200, 2171, 2170, 3630, 3631, 3602, 3601
1881, 2200, 2201, 2172, 2171, 3631, 3632, 3603, 3602
1882, 2201, 2202, 2173, 2172, 3632, 3633, 3604, 3603
1883, 2202, 2203, 2174, 2173, 3633, 3634, 3605, 3604
1884, 2203, 2204, 2175, 2174, 3634, 3635, 3606, 3605
1885, 2204, 2205, 2176, 2175, 3635, 3636, 3607, 3606
1886, 2205, 2206, 2177, 2176, 3636, 3637, 3608, 3607
1887, 2206, 2207, 2178, 2177, 3637, 3638, 3609, 3608
1888, 2207, 2208, 2179, 2178, 3638, 3639, 3610, 3609
1889, 2208, 2209, 2180, 2179, 3639, 3640, 3611, 3610
1890, 2209, 2210, 2181, 2180, 3640, 3641, 3612, 3611
1891, 2210, 2211, 2182, 2181, 3641, 3642, 3613, 3612
1892, 2211, 2212, 2183, 2182, 3642, 3643, 3614, 3613
1893, 2212, 2213, 2184, 2183, 3643, 3644, 3615, 3614
1894, 2213, 2214, 2185, 2184, 3644, 3645, 3616, 3615
1895, 2214, 2215, 2186, 2185, 3645, 3646, 3617, 3616
1896, 2215, 2216, 2187, 2186, 3646, 3647, 3618, 3617
1897, 2216, 2217, 2188, 2187, 3647, 3648, 3619, 3618
1898, 2217, 1486, 1485, 2188, 3648, 2917, 2916, 3619
1899, 1537, 2218, 2189, 1538, 2968, 3649, 3620, 2969
1900, 2218, 2219, 2190, 2189, 3649, 3650, 3621, 3620
1901, 2219, 2220, 2191, 2190, 3650, 3651, 3622, 3621
1902, 2220, 2221, 2192, 2191, 3651, 3652, 3623, 3622
1903, 2221, 2222, 2193, 2192, 3652, 3653, 3624, 3623
1904, 2222, 2223, 2194, 2193, 3653, 3654, 3625, 3624
1905, 2223, 2224, 2195, 2194, 3654, 3655, 3626, 3625
1906, 2224, 2225, 2196, 2195, 3655, 3656, 3627, 3626
1907, 2225, 2226, 2197, 2196, 3656, 3657, 3628, 3627
1908, 2226, 2227, 2198, 2197, 3657, 3658, 3629, 3628
1909, 2227, 2228, 2199, 2198, 3658, 3659, 3630, 3629
1910, 2228, 2229, 2200, 2199, 3659, 3660, 3631, 3630
1911, 2229, 2230, 2201, 2200, 3660, 3661, 3632, 3631
1912, 2230, 2231, 2202, 2201, 3661, 3662, 3633, 3632
1913, 2231, 2232, 2203, 2202, 3662, 3663, 3634, 3633
1914, 2232, 2233, 2204, 2203, 3663, 3664, 3635, 3634
1915, 2233, 2234, 2205, 2204, 3664, 3665, 3636, 3635
1916, 2234, 2235, 2206, 2205, 3665, 3666, 3637, 3636
1917, 2235, 2236, 2207, 2206, 3666, 3667, 3638, 3637
1918, 2236, 2237, 2208, 2207, 3667, 3668, 3639, 3638
1919, 2237, 2238, 2209, 2208, 3668, 3669, 3640, 3639
1920, 2238, 2239, 2210, 2209, 3669, 3670, 3641, 3640
1921, 2239, 2240, 2211, 2210, 3670, 3671, 3642, 3641
1922, 2240, 2241, 2212, 2211, 3671, 3672, 3643, 3642
1923, 2241, 2242, 2213, 2212, 3672, 3673, 3644, 3643
1924, 2242, 2243, 2214, 2213, 3673, 3674, 3645, 3644
1925, 2243, 2244, 2215, 2214, 3674, 3675, 3646, 3645
1926, 2244, 2245, 2216, 2215, 3675, 3676, 3647, 3646
1927, 2245, 2246, 2217, 2216, 3676, 3677, 3648, 3647
1928, 2246, 1487, 1486, 2217, 3677, 2918, 2917, 3648
1929, 1536, 2247, 2218, 1537, 2967, 3678, 3649, 2968
1930, 2247, 2248, 2219, 2218, 3678, 3679, 3650, 3649
1931, 2248, 2249, 2220, 2219, 3679, 3680, 3651, 3650
1932, 2249, 2250, 2221, 2220, 3680, 3681, 3652, 3651
1933, 2250, 2251, 2222, 2221, 3681, 3682, 3653, 3652
1934, 2251, 2252, 2223, 2222, 3682, 3683, 3654, 3653
1935, 2252, 2253, 2224, 2223, 3683, 3684, 3655, 3654
1936, 2253, 2254, 2225, 2224, 3684, 3685, 3656, 3655
1937, 2254, 2255, 2226, 2225, 3685, 3686, 3657, 3656
1938, 2255, 2256, 2227, 2226, 3686, 3687, 3658, 3657
1939, 2256, 2257, 2228, 2227, 3687, 3688, 3659, 3658
1940, 2257, 2258, 2229, 2228, 3688, 3689, 3660, 3659
1941, 2258, 2259, 2230, 2229, 3689, 3690, 3661, 3660
1942, 2259, 2260, 2231, 2230, 3690, 3691, 3662, 3661
1943, 2260, 2261, 2232, 2231, 3691, 3692, 3663, 3662
1944, 2261, 2262, 2233, 2232, 3692, 3693, 3664, 3663
1945, 2262, 2263, 2234, 2233, 3693, 3694, 3665, 3664
1946, 2263, 2264, 2235, 2234, 3694, 3695, 3666, 3665
1947, 2264, 2265, 2236, 2235, 3695, 3696, 3667, 3666
1948, 2265, 2266, 2237, 2236, 3696, 3697, 3668, 3667
1949, 2266, 2267, 2238, 2237, 3697, 3698, 3669, 3668
1950, 2267, 2268, 2239, 2238, 3698, 3699, 3670, 3669
1951, 2268, 2269, 2240, 2239, 3699, 3700, 3671, 3670
1952, 2269, 2270, 2241, 2240, 3700, 3701, 3672, 3671
1953, 2270, 2271, 2242, 2241, 3701, 3702, 3673, 3672
1954, 2271, 2272, 2243, 2242, 3702, 3703, 3674, 3673
1955, 2272, 2273, 2244, 2243, 3703, 3704, 3675, 3674
1956, 2273, 2274, 2245, 2244, 3704, 3705, 3676, 3675
1957, 2274, 2275, 2246, 2245, 3705, 3706, 3677, 3676
1958, 2275, 1488, 1487, 2246, 3706, 2919, 2918, 3677
1959, 1535, 2276, 2247, 1536, 2966, 3707, 3678, 2967
1960, 2276, 2277, 2248, 2247, 3707, 3708, 3679, 3678
1961, 2277, 2278, 2249, 2248, 3708, 3709, 3680, 3679
1962, 2278, 2279, 2250, 2249, 3709, 3710, 3681, 3680
1963, 2279, 2280, 2251, 2250, 3710, 3711, 3682, 3681
1964, 2280, 2281, 2252, 2251, 3711, 3712, 3683, 3682
1965, 2281, 2282, 2253, 2252, 3712, 3713, 3684, 3683
1966, 2282, 2283, 2254, 2253, 3713, 3714, 3685, 3684
1967, 2283, 2284, 2255, 2254, 3714, 3715, 3686, 3685
1968, 2284, 2285, 2256, 2255, 3715, 3716, 3687, 3686
1969, 2285, 2286, 2257, 2256, 3716, 3717, 3688, 3687
1970, 2286, 2287, 2258, 2257, 3717, 3718, 3689, 3688
1971, 2287, 2288, 2259, 2258, 3718, 3719, 3690, 3689
1972, 2288, 2289, 2260, 2259, 3719, 3720, 3691, 3690
1973, 2289, 2290, 2261, 2260, 3720, 3721, 3692, 3691
1974, 2290, 2291, 2262, 2261, 3721, 3722, 3693, 3692
1975, 2291, 2292, 2263, 2262, 3722, 3723, 3694, 3693
1976, 2292, 2293, 2264, 2263, 3723, 3724, 3695, 3694
1977, 2293, 2294, 2265, 2264, 3724, 3725, 3696, 3695
1978, 2294, 2295, 2266, 2265, 3725, 3726, 3697, 3696
1979, 2295, 2296, 2267, 2266, 3726, 3727, 3698, 3697
1980, 2296, 2297, 2268, 2267, 3727, 3728, 3699, 3698
1981, 2297, 2298, 2269, 2268, 3728, 3729, 3700, 3699
1982, 2298, 2299, 2270, 2269, 3729, 3730, 3701, 3700
1983, 2299, 2300, 2271, 2270, 3730, 3731, 3702, 3701
1984, 2300, 2301, 2272, 2271, 3731, 3732, 3703, 3702
1985, 2301, 2302, 2273, 2272, 3732, 3733, 3704, 3703
1986, 2302, 2303, 2274, 2273, 3733, 3734, 3705, 3704
1987, 2303, 2304, 2275, 2274, 3734, 3735, 3706, 3705
1988, 2304, 1489, 1488, 2275, 3735, 2920, 2919, 3706
1989, 1534, 2305, 2276, 1535, 2965, 3736, 3707, 2966
1990, 2305, 2306, 2277, 2276, 3736, 3737, 3708, 3707
1991, 2306, 2307, 2278, 2277, 3737, 3738, 3709, 3708
1992, 2307, 2308, 2279, 2278, 3738, 3739, 3710, 3709
1993, 2308, 2309, 2280, 2279, 3739, 3740, 3711, 3710
1994, 2309, 2310, 2281, 2280, 3740, 3741, 3712, 3711
1995, 2310, 2311, 2282, 2281, 3741, 3742, 3713, 3712
1996, 2311, 2312, 2283, 2282, 3742, 3743, 3714, 3713
1997, 2312, 2313, 2284, 2283, 3743, 3744, 3715, 3714
1998, 2313, 2314, 2285, 2284, 3744, 3745, 3716, 3715
1999, 2314, 2315, 2286, 2285, 3745, 3746, 3717, 3716
2000, 2315, 2316, 2287, 2286, 3746, 3747, 3718, 3717
2001, 2316, 2317, 2288, 2287, 3747, 3748, 3719, 3718
2002, 2317, 2318, 2289, 2288, 3748, 3749, 3720, 3719
2003, 2318, 2319, 2290, 2289, 3749, 3750, 3721, 3720
2004, 2319, 2320, 2291, 2290, 3750, 3751, 3722, 3721
2005, 2320, 2321, 2292, 2291, 3751, 3752, 3723, 3722
2006, 2321, 2322, 2293, 2292, 3752, 3753, 3724, 3723
2007, 2322, 2323, 2294, 2293, 3753, 3754, 3725, 3724
2008, 2323, 2324, 2295, 2294, 3754, 3755, 3726, 3725
2009, 2324, 2325, 2296, 2295, 3755, 3756, 3727, 3726
2010, 2325, 2326, 2297, 2296, 3756, 3757, 3728, 3727
2011, 2326, 2327, 2298, 2297, 3757, 3758, 3729, 3728
2012, 2327, 2328, 2299, 2298, 3758, 3759, 3730, 3729
2013, 2328, 2329, 2300, 2299, 3759, 3760, 3731, 3730
2014, 2329, 2330, 2301, 2300, 3760, 3761, 3732, 3731
2015, 2330, 2331, 2302, 2301, 3761, 3762, 3733, 3732
2016, 2331, 2332, 2303, 2302, 3762, 3763, 3734, 3733
2017, 2332, 2333, 2304, 2303, 3763, 3764, 3735, 3734
2018, 2333, 1490, 1489, 2304, 3764, 2921, 2920, 3735
2019, 1533, 2334, 2305, 1534, 2964, 3765, 3736, 2965
2020, 2334, 2335, 2306, 2305, 3765, 3766, 3737, 3736
2021, 2335, 2336, 2307, 2306, 3766, 3767, 3738, 3737
2022, 2336, 2337, 2308, 2307, 3767, 3768, 3739, 3738
2023, 2337, 2338, 2309, 2308, 3768, 3769, 3740, 3739
2024, 2338, 2339, 2310, 2309, 3769, 3770, 3741, 3740
2025, 2339, 2340, 2311, 2310, 3770, 3771, 3742, 3741
2026, 2340, 2341, 2312, 2311, 3771, 3772, 3743, 3742
2027, 2341, 2342, 2313, 2312, 3772, 3773, 3744, 3743
2028, 2342, 2343, 2314, 2313, 3773, 3774, 3745, 3744
2029, 2343, 2344, 2315, 2314, 3774, 3775, 3746, 3745
2030, 2344, 2345, 2316, 2315, 3775, 3776, 3747, 3746
2031, 2345, 2346, 2317, 2316, 3776, 3777, 3748, 3747
2032, 2346, 2347, 2318, 2317, 3777, 3778, 3749, 3748
2033, 2347, 2348, 2319, 2318, 3778, 3779, 3750, 3749
2034, 2348, 2349, 2320, 2319, 3779, 3780, 3751, 3750
2035, 2349, 2350, 2321, 2320, 3780, 3781, 3752, 3751
2036, 2350, 2351, 2322, 2321, 3781, 3782, 3753, 3752
2037, 2351, 2352, 2323, 2322, 3782, 3783, 3754, 3753
2038, 2352, 2353, 2324, 2323, 3783, 3784, 3755, 3754
2039, 2353, 2354, 2325, 2324, 3784, 3785, 3756, 3755
2040, 2354, 2355, 2326, 2325, 3785, 3786, 3757, 3756
2041, 2355, 2356, 2327, 2326, 3786, 3787, 3758, 3757
2042, 2356, 2357, 2328, 2327, 3787, 3788, 3759, 3758
2043, 2357, 2358, 2329, 2328, 3788, 3789, 3760, 3759
2044, 2358, 2359, 2330, 2329, 3789, 3790, 3761, 3760
2045, 2359, 2360, 2331, 2330, 3790, 3791, 3762, 3761
2046, 2360, 2361, 2332, 2331, 3791, 3792, 3763, 3762
2047, 2361, 2362, 2333, 2332, 3792, 3793, 3764, 3763
2048, 2362, 1491, 1490, 2333, 3793, 2922, 2921, 3764
2049, 1532, 2363, 2334, 1533, 2963, 3794, 3765, 2964
2050, 2363, 2364, 2335, 2334, 3794, 3795, 3766, 3765
2051, 2364, 2365, 2336, 2335, 3795, 3796, 3767, 3766
2052, 2365, 2366, 2337, 2336, 3796, 3797, 3768, 3767
2053, 2366, 2367, 2338, 2337, 3797, 3798, 3769, 3768
2054, 2367, 2368, 2339, 2338, 3798, 3799, 3770, 3769
2055, 2368, 2369, 2340, 2339, 3799, 3800, 3771, 3770
2056, 2369, 2370, 2341, 2340, 3800, 3801, 3772, 3771
2057, 2370, 2371, 2342, 2341, 3801, 3802, 3773, 3772
2058, 2371, 2372, 2343, 2342, 3802, 3803, 3774, 3773
2059, 2372, 2373, 2344, 2343, 3803, 3804, 3775, 3774
2060, 2373, 2374, 2345, 2344, 3804, 3805, 3776, 3775
2061, 2374, 2375, 2346, 2345, 3805, 3806, 3777, 3776
2062, 2375, 2376, 2347, 2346, 3806, 3807, 3778, 3777
2063, 2376, 2377, 2348, 2347, 3807, 3808, 3779, 3778
2064, 2377, 2378, 2349, 2348, 3808, 3809, 3780, 3779
2065, 2378, 2379, 2350, 2349, 3809, 3810, 3781, 3780
2066, 2379, 2380, 2351, 2350, 3810, 3811, 3782, 3781
2067, 2380, 2381, 2352, 2351, 3811, 3812, 3783, 3782
2068, 2381, 2382, 2353, 2352, 3812, 3813, 3784, 3783
2069, 2382, 2383, 2354, 2353, 3813, 3814, 3785, 3784
2070, 2383, 2384, 2355, 2354, 3814, 3815, 3786, 3785
2071, 2384, 2385, 2356, 2355, 3815, 3816, 3787, 3786
2072, 2385, 2386, 2357, 2356, 3816, 3817, 3788, 3787
2073, 2386, 2387, 2358, 2357, 3817, 3818, 3789, 3788
2074, 2387, 2388, 2359, 2358, 3818, 3819, 3790, 3789
2075, 2388, 2389, 2360, 2359, 3819, 3820, 3791, 3790
2076, 2389, 2390, 2361, 2360, 3820, 3821, 3792, 3791
2077, 2390, 2391, 2362, 2361, 3821, 3822, 3793, 3792
2078, 2391, 1492, 1491, 2362, 3822, 2923, 2922, 3793
2079, 1531, 2392, 2363, 1532, 2962, 3823, 3794, 2963
2080, 2392, 2393, 2364, 2363, 3823, 3824, 3795, 3794
2081, 2393, 2394, 2365, 2364, 3824, 3825, 3796, 3795
2082, 2394, 2395, 2366, 2365, 3825, 3826, 3797, 3796
2083, 2395, 2396, 2367, 2366, 3826, 3827, 3798, 3797
2084, 2396, 2397, 2368, 2367, 3827, 3828, 3799, 3798
2085, 2397, 2398, 2369, 2368, 3828, 3829, 3800, 3799
2086, 2398, 2399, 2370, 2369, 3829, 3830, 3801, 3800
2087, 2399, 2400, 2371, 2370, 3830, 3831, 3802, 3801
2088, 2400, 2401, 2372, 2371, 3831, 3832, 3803, 3802
2089, 2401, 2402, 2373, 2372, 3832, 3833, 3804, 3803
2090, 2402, 2403, 2374, 2373, 3833, 3834, 3805, 3804
2091, 2403, 2404, 2375, 2374, 3834, 3835, 3806, 3805
2092, 2404, 2405, 2376, 2375, 3835, 3836, 3807, 3806
2093, 2405, 2406, 2377, 2376, 3836, 3837, 3808, 3807
2094, 2406, 2407, 2378, 2377, 3837, 3838, 3809, 3808
2095, 2407, 2408, 2379, 2378, 3838, 3839, 3810, 3809
2096, 2408, 2409, 2380, 2379, 3839, 3840, 3811, 3810
2097, 2409, 2410, 2381, 2380, 3840, 3841, 3812, 3811
2098, 2410, 2411, 2382, 2381, 3841, 3842, 3813, 3812
2099, 2411, 2412, 2383, 2382, 3842, 3843, 3814, 3813
2100, 2412, 2413, 2384, 2383, 3843, 3844, 3815, 3814
2101, 2413, 2414, 2385, 2384, 3844, 3845, 3816, 3815
2102, 2414, 2415, 2386, 2385, 3845, 3846, 3817, 3816
2103, 2415, 2416, 2387, 2386, 3846, 3847, 3818, 3817
2104, 2416, 2417, 2388, 2387, 3847, 3848, 3819, 3818
2105, 2417, 2418, 2389, 2388, 3848, 3849, 3820, 3819
2106, 2418, 2419, 2390, 2389, 3849, 3850, 3821, 3820
2107, 2419, 2420, 2391, 2390, 3850, 3851, 3822, 3821
2108, 2420, 1493, 1492, 2391, 3851, 2924, 2923, 3822
2109, 1530, 2421, 2392, 1531, 2961, 3852, 3823, 2962
2110, 2421, 2422, 2393, 2392, 3852, 3853, 3824, 3823
2111, 2422, 2423, 2394, 2393, 3853, 3854, 3825, 3824
2112, 2423, 2424, 2395, 2394, 3854, 3855, 3826, 3825
2113, 2424, 2425, 2396, 2395, 3855, 3856, 3827, 3826
2114, 2425, 2426, 2397, 2396, 3856, 3857, 3828, 3827
2115, 2426, 2427, 2398, 2397, 3857, 3858, 3829, 3828
2116, 2427, 2428, 2399, 2398, 3858, 3859, 3830, 3829
2117, 2428, 2429, 2400, 2399, 3859, 3860, 3831, 3830
2118, 2429, 2430, 2401, 2400, 3860, 3861, 3832, 3831
2119, 2430, 2431, 2402, 2401, 3861, 3862, 3833, 3832
2120, 2431, 2432, 2403, 2402, 3862, 3863, 3834, 3833
2121, 2432, 2433, 2404, 2403, 3863, 3864, 3835, 3834
2122, 2433, 2434, 2405, 2404, 3864, 3865, 3836, 3835
2123, 2434, 2435, 2406, 2405, 3865, 3866, 3837, 3836
2124, 2435, 2436, 2407, 2406, 3866, 3867, 3838, 3837
2125, 2436, 2437, 2408, 2407, 3867, 3868, 3839, 3838
2126, 2437, 2438, 2409, 2408, 3868, 3869, 3840, 3839
2127, 2438, 2439, 2410, 2409, 3869, 3870, 3841, 3840
2128, 2439, 2440, 2411, 2410, 3870, 3871, 3842, 3841
2129, 2440, 2441, 2412, 2411, 3871, 3872, 3843, 3842
2130, 2441, 2442, 2413, 2412, 3872, 3873, 3844, 3843
2131, 2442, 2443, 2414, 2413, 3873, 3874, 3845, 3844
2132, 2443, 2444, 2415, 2414, 3874, 3875, 3846, 3845
2133, 2444, 2445, 2416, 2415, 3875, 3876, 3847, 3846
2134, 2445, 2446, 2417, 2416, 3876, 3877, 3848, 3847
2135, 2446, 2447, 2418, 2417, 3877, 3878, 3849, 3848
2136, 2447, 2448, 2419, 2418, 3878, 3879, 3850, 3849
2137, 2448, 2449, 2420, 2419, 3879, 3880, 3851, 3850
2138, 2449, 1494, 1493, 2420, 3880, 2925, 2924, 3851
2139, 1529, 2450, 2421, 1530, 2960, 3881, 3852, 2961
2140, 2450, 2451, 2422, 2421, 3881, 3882, 3853, 3852
2141, 2451, 2452, 2423, 2422, 3882, 3883, 3854, 3853
2142, 2452, 2453, 2424, 2423, 3883, 3884, 3855, 3854
2143, 2453, 2454, 2425, 2424, 3884, 3885, 3856, 3855
2144, 2454, 2455, 2426, 2425, 3885, 3886, 3857, 3856
2145, 2455, 2456, 2427, 2426, 3886, 3887, 3858, 3857
2146, 2456, 2457, 2428, 2427, 3887, 3888, 3859, 3858
2147, 2457, 2458, 2429, 2428, 3888, 3889, 3860, 3859
2148, 2458, 2459, 2430, 2429, 3889, 3890, 3861, 3860
2149, 2459, 2460, 2431, 2430, 3890, 3891, 3862, 3861
2150, 2460, 2461, 2432, 2431, 3891, 3892, 3863, 3862
2151, 2461, 2462, 2433, 2432, 3892, 3893, 3864, 3863
2152, 2462, 2463, 2434, 2433, 3893, 3894, 3865, 3864
2153, 2463, 2464, 2435, 2434, 3894, 3895, 3866, 3865
2154, 2464, 2465, 2436, 2435, 3895, 3896, 3867, 3866
2155, 2465, 2466, 2437, 2436, 3896, 3897, 3868, 3867
2156, 2466, 2467, 2438, 2437, 3897, 3898, 3869, 3868
2157, 2467, 2468, 2439, 2438, 3898, 3899, 3870, 3869
2158, 2468, 2469, 2440, 2439, 3899, 3900, 3871, 3870
2159, 2469, 2470, 2441, 2440, 3900, 3901, 3872, 3871
2160, 2470, 2471, 2442, 2441, 3901, 3902, 3873, 3872
2161, 2471, 2472, 2443, 2442, 3902, 3903, 3874, 3873
2162, 2472, 2473, 2444, 2443, 3903, 3904, 3875, 3874
2163, 2473, 2474, 2445, 2444, 3904, 3905, 3876, 3875
2164, 2474, 2475, 2446, 2445, 3905, 3906, 3877, 3876
2165, 2475, 2476, 2447, 2446, 3906, 3907, 3878, 3877
2166, 2476, 2477, 2448, 2447, 3907, 3908, 3879, 3878
2167, 2477, 2478, 2449, 2448, 3908, 3909, 3880, 3879
2168, 2478, 1495, 1494, 2449, 3909, 2926, 2925, 3880
2169, 1528, 2479, 2450, 1529, 2959, 3910, 3881, 2960
2170, 2479, 2480, 2451, 2450, 3910, 3911, 3882, 3881
2171, 2480, 2481, 2452, 2451, 3911, 3912, 3883, 3882
2172, 2481, 2482, 2453, 2452, 3912, 3913, 3884, 3883
2173, 2482, 2483, 2454, 2453, 3913, 3914, 3885, 3884
2174, 2483, 2484, 2455, 2454, 3914, 3915, 3886, 3885
2175, 2484, 2485, 2456, 2455, 3915, 3916, 3887, 3886
2176, 2485, 2486, 2457, 2456, 3916, 3917, 3888, 3887
2177, 2486, 2487, 2458, 2457, 3917, 3918, 3889, 3888
2178, 2487, 2488, 2459, 2458, 3918, 3919, 3890, 3889
2179, 2488, 2489, 2460, 2459, 3919, 3920, 3891, 3890
2180, 2489, 2490, 2461, 2460, 3920, 3921, 3892, 3891
2181, 2490, 2491, 2462, 2461, 3921, 3922, 3893, 3892
2182, 2491, 2492, 2463, 2462, 3922, 3923, 3894, 3893
2183, 2492, 2493, 2464, 2463, 3923, 3924, 3895, 3894
2184, 2493, 2494, 2465, 2464, 3924, 3925, 3896, 3895
2185, 2494, 2495, 2466, 2465, 3925, 3926, 3897, 3896
2186, 2495, 2496, 2467, 2466, 3926, 3927, 3898, 3897
2187, 2496, 2497, 2468, 2467, 3927, 3928, 3899, 3898
2188, 2497, 2498, 2469, 2468, 3928, 3929, 3900, 3899
2189, 2498, 2499, 2470, 2469, 3929, 3930, 3901, 3900
2190, 2499, 2500, 2471, 2470, 3930, 3931, 3902, 3901
2191, 2500, 2501, 2472, 2471, 3931, 3932, 3903, 3902
2192, 2501, 2502, 2473, 2472, 3932, 3933, 3904, 3903
2193, 2502, 2503, 2474, 2473, 3933, 3934, 3905, 3904
2194, 2503, 2504, 2475, 2474, 3934, 3935, 3906, 3905
2195, 2504, 2505, 2476, 2475, 3935, 3936, 3907, 3906
2196, 2505, 2506, 2477, 2476, 3936, 3937, 3908, 3907
2197, 2506, 2507, 2478, 2477, 3937, 3938, 3909, 3908
2198, 2507, 1496, 1495, 2478, 3938, 2927, 2926, 3909
2199, 1527, 2508, 2479, 1528, 2958, 3939, 3910, 2959
2200, 2508, 2509, 2480, 2479, 3939, 3940, 3911, 3910
2201, 2509, 2510, 2481, 2480, 3940, 3941, 3912, 3911
2202, 2510, 2511, 2482, 2481, 3941, 3942, 3913, 3912
2203, 2511, 2512, 2483, 2482, 3942, 3943, 3914, 3913
2204, 2512, 2513, 2484, 2483, 3943, 3944, 3915, 3914
2205, 2513, 2514, 2485, 2484, 3944, 3945, 3916, 3915
2206, 2514, 2515, 2486, 2485, 3945, 3946, 3917, 3916
2207, 2515, 2516, 2487, 2486, 3946, 3947, 3918, 3917
2208, 2516, 2517, 2488, 2487, 3947, 3948, 3919, 3918
2209, 2517, 2518, 2489, 2488, 3948, 3949, 3920, 3919
2210, 2518, 2519, 2490, 2489, 3949, 3950, 3921, 3920
2211, 2519, 2520, 2491, 2490, 3950, 3951, 3922, 3921
2212, 2520, 2521, 2492, 2491, 3951, 3952, 3923, 3922
2213, 2521, 2522, 2493, 2492, 3952, 3953, 3924, 3923
2214, 2522, 2523, 2494, 2493, 3953, 3954, 3925, 3924
2215, 2523, 2524, 2495, 2494, 3954, 3955, 3926, 3925
2216, 2524, 2525, 2496, 2495, 3955, 3956, 3927, 3926
2217, 2525, 2526, 2497, 2496, 3956, 3957, 3928, 3927
2218, 2526, 2527, 2498, 2497, 3957, 3958, 3929, 3928
2219, 2527, 2528, 2499, 2498, 3958, 3959, 3930, 3929
2220, 2528, 2529, 2500, 2499, 3959, 3960, 3931, 3930
2221, 2529, 2530, 2501, 2500, 3960, 3961, 3932, 3931
2222, 2530, 2531, 2502, 2501, 3961, 3962, 3933, 3932
2223, 2531, 2532, 2503, 2502, 3962, 3963, 3934, 3933
2224, 2532, 2533, 2504, 2503, 3963, 3964, 3935, 3934
2225, 2533, 2534, 2505, 2504, 3964, 3965, 3936, 3935
2226, 2534, 2535, 2506, 2505, 3965, 3966, 3937, 3936
2227, 2535, 2536, 2507, 2506, 3966, 3967, 3938, 3937
2228, 2536, 1497, 1496, 2507, 3967, 2928, 2927, 3938
2229, 1435, 1526, 2508, 1527, 2866, 2957, 3939, 2958
2230, 1526, 1525, 2509, 2508, 2957, 2956, 3940, 3939
2231, 1525, 1524, 2510, 2509, 2956, 2955, 3941, 3940
2232, 1524, 1523, 2511, 2510, 2955, 2954, 3942, 3941
2233, 1523, 1522, 2512, 2511, 2954, 2953, 3943, 3942
2234, 1522, 1521, 2513, 2512, 2953, 2952, 3944, 3943
2235, 1521, 1520, 2514, 2513, 2952, 2951, 3945, 3944
2236, 1520, 1519, 2515, 2514, 2951, 2950, 3946, 3945
2237, 1519, 1518, 2516, 2515, 2950, 2949, 3947, 3946
2238, 1518, 1517, 2517, 2516, 2949, 2948, 3948, 3947
2239, 1517, 1516, 2518, 2517, 2948, 2947, 3949, 3948
2240, 1516, 1515, 2519, 2518, 2947, 2946, 3950, 3949
2241, 1515, 1514, 2520, 2519, 2946, 2945, 3951, 3950
2242, 1514, 1513, 2521, 2520, 2945, 2944, 3952, 3951
2243, 1513, 1512, 2522, 2521, 2944, 2943, 3953, 3952
2244, 1512, 1511, 2523, 2522, 2943, 2942, 3954, 3953
2245, 1511, 1510, 2524, 2523, 2942, 2941, 3955, 3954
2246, 1510, 1509, 2525, 2524, 2941, 2940, 3956, 3955
2247, 1509, 1508, 2526, 2525, 2940, 2939, 3957, 3956
2248, 1508, 1507, 2527, 2526, 2939, 2938, 3958, 3957
2249, 1507, 1506, 2528, 2527, 2938, 2937, 3959, 3958
2250, 1506, 1505, 2529, 2528, 2937, 2936, 3960, 3959
2251, 1505, 1504, 2530, 2529, 2936, 2935, 3961, 3960
2252, 1504, 1503, 2531, 2530, 2935, 2934, 3962, 3961
2253, 1503, 1502, 2532, 2531, 2934, 2933, 3963, 3962
2254, 1502, 1501, 2533, 2532, 2933, 2932, 3964, 3963
2255, 1501, 1500, 2534, 2533, 2932, 2931, 3965, 3964
2256, 1500, 1499, 2535, 2534, 2931, 2930, 3966, 3965
2257, 1499, 1498, 2536, 2535, 2930, 2929, 3967, 3966
2258, 1498, 1434, 1497, 2536, 2929, 2865, 2928, 3967
2259, 1463, 2770, 2549, 1462, 2894, 4201, 3980, 2893
2260, 2601, 1461, 1462, 2549, 4032, 2892, 2893, 3980
2261, 2548, 1460, 1461, 2601, 3979, 2891, 2892, 4032
2262, 2605, 2745, 1649, 1648, 4036, 4176, 3080, 3079
2263, 1651, 1650, 2746, 2606, 3082, 3081, 4177, 4037
2264, 2550, 1464, 1465, 2764, 3981, 2895, 2896, 4195
2265, 1467, 2598, 2551, 1466, 2898, 4029, 3982, 2897
2266, 2770, 2550, 2764, 2673, 4201, 3981, 4195, 4104
2267, 2673, 2607, 1654, 1653, 4104, 4038, 3085, 3084
2268, 1655, 1654, 2607, 2608, 3086, 3085, 4038, 4039
2269, 1656, 1655, 2608, 2609, 3087, 3086, 4039, 4040
2270, 1657, 1656, 2609, 2610, 3088, 3087, 4040, 4041
2271, 2611, 1658, 1657, 2610, 4042, 3089, 3088, 4041
2272, 1469, 2699, 2553, 1433, 2900, 4130, 3984, 2864
2273, 1471, 2698, 2538, 1470, 2902, 4129, 3969, 2901
2274, 2596, 1472, 1473, 2765, 4027, 2903, 2904, 4196
2275, 2595, 1474, 1475, 2697, 4026, 2905, 2906, 4128
2276, 1477, 2602, 2594, 1476, 2908, 4033, 4025, 2907
2277, 2697, 1475, 1476, 2594, 4128, 2906, 2907, 4025
2278, 2685, 1459, 1460, 2548, 4116, 2890, 2891, 3979
2279, 1647, 1646, 2612, 2744, 3078, 3077, 4043, 4175
2280, 2744, 2605, 1648, 1647, 4175, 4036, 3079, 3078
2281, 2786, 1457, 1458, 2547, 4217, 2888, 2889, 3978
2282, 2546, 1455, 1456, 2811, 3977, 2886, 2887, 4242
2283, 1645, 1644, 2613, 2743, 3076, 3075, 4044, 4174
2284, 2785, 2546, 2743, 2613, 4216, 3977, 4174, 4044
2285, 1453, 1454, 2785, 2545, 2884, 2885, 4216, 3976
2286, 1643, 1642, 2614, 2742, 3074, 3073, 4045, 4173
2287, 2784, 2545, 2742, 2614, 4215, 3976, 4173, 4045
2288, 2784, 2544, 1451, 1452, 4215, 3975, 2882, 2883
2289, 2615, 2740, 1640, 1639, 4046, 4171, 3071, 3070
2290, 2805, 2544, 2741, 2740, 4236, 3975, 4172, 4171
2291, 1450, 1451, 2544, 2616, 2881, 2882, 3975, 4047
2292, 1638, 1637, 2617, 2739, 3069, 3068, 4048, 4170
2293, 2739, 2615, 1639, 1638, 4170, 4046, 3070, 3069
2294, 1449, 1450, 2616, 2543, 2880, 2881, 4047, 3974
2295, 1449, 2543, 2618, 1448, 2880, 3974, 4049, 2879
2296, 1636, 1635, 2622, 2738, 3067, 3066, 4053, 4169
2297, 2738, 2617, 1637, 1636, 4169, 4048, 3068, 3067
2298, 1448, 2618, 2542, 1447, 2879, 4049, 3973, 2878
2299, 2686, 1446, 1447, 2542, 4117, 2877, 2878, 3973
2300, 2767, 1444, 1445, 2541, 4198, 2875, 2876, 3972
2301, 2687, 1442, 1443, 2540, 4118, 2873, 2874, 3971
2302, 2688, 1440, 1441, 2537, 4119, 2871, 2872, 3968
2303, 1432, 2539, 2716, 2623, 2863, 3970, 4147, 4054
2304, 2717, 2619, 1623, 1622, 4148, 4050, 3054, 3053
2305, 2619, 2716, 1624, 1623, 4050, 4147, 3055, 3054
2306, 2716, 2620, 1625, 1624, 4147, 4051, 3056, 3055
2307, 1626, 2620, 2734, 1627, 3057, 4051, 4165, 3058
2308, 2737, 2736, 2792, 2848, 4168, 4167, 4223, 4279
2309, 2621, 2847, 1634, 1633, 4052, 4278, 3065, 3064
2310, 2847, 2622, 1635, 1634, 4278, 4053, 3066, 3065
2311, 1446, 2686, 2541, 1445, 2877, 4117, 3972, 2876
2312, 1432, 2623, 2554, 1555, 2863, 4054, 3985, 2986
2313, 1555, 2554, 2625, 1554, 2986, 3985, 4056, 2985
2314, 2624, 2718, 1621, 1620, 4055, 4149, 3052, 3051
2315, 1622, 1621, 2718, 2717, 3053, 3052, 4149, 4148
2316, 1553, 1554, 2625, 2555, 2984, 2985, 4056, 3986
2317, 1553, 2555, 2627, 1552, 2984, 3986, 4058, 2983
2318, 1619, 1618, 2626, 2719, 3050, 3049, 4057, 4150
2319, 2827, 2719, 2556, 2627, 4258, 4150, 3987, 4058
2320, 1552, 2627, 2556, 1551, 2983, 4058, 3987, 2982
2321, 2557, 1549, 1550, 2771, 3988, 2980, 2981, 4202
2322, 1617, 1616, 2829, 2720, 3048, 3047, 4260, 4151
2323, 2829, 2771, 2626, 2720, 4260, 4202, 4057, 4151
2324, 1551, 2556, 2771, 1550, 2982, 3987, 4202, 2981
2325, 2603, 1548, 1549, 2557, 4034, 2979, 2980, 3988
2326, 2689, 1546, 1547, 2558, 4120, 2977, 2978, 3989
2327, 2775, 1544, 1545, 2559, 4206, 2975, 2976, 3990
2328, 1543, 2812, 2560, 1542, 2974, 4243, 3991, 2973
2329, 2776, 2561, 1540, 1541, 4207, 3992, 2971, 2972
2330, 1538, 1539, 2777, 2562, 2969, 2970, 4208, 3993
2331, 1536, 1537, 2628, 2563, 2967, 2968, 4059, 3994
2332, 1535, 2629, 2564, 1534, 2966, 4060, 3995, 2965
2333, 2690, 1533, 1534, 2564, 4121, 2964, 2965, 3995
2334, 1533, 2690, 2565, 1532, 2964, 4121, 3996, 2963
2335, 2766, 1531, 1532, 2565, 4197, 2962, 2963, 3996
2336, 2566, 1530, 1531, 2766, 3997, 2961, 2962, 4197
2337, 2731, 2637, 1596, 1595, 4162, 4068, 3027, 3026
2338, 2630, 2843, 1599, 1598, 4061, 4274, 3030, 3029
2339, 2730, 2630, 1598, 1597, 4161, 4061, 3029, 3028
2340, 2843, 2631, 1600, 1599, 4274, 4062, 3031, 3030
2341, 2843, 2690, 2729, 2631, 4274, 4121, 4160, 4062
2342, 2563, 2830, 2797, 2629, 3994, 4261, 4228, 4060
2343, 2726, 2632, 2774, 2562, 4157, 4063, 4205, 3993
2344, 2562, 2777, 2633, 2726, 3993, 4208, 4064, 4157
2345, 2724, 2634, 2776, 2560, 4155, 4065, 4207, 3991
2346, 2724, 2775, 2559, 2635, 4155, 4206, 3990, 4066
2347, 2723, 2689, 2558, 2722, 4154, 4120, 3989, 4153
2348, 1616, 1615, 2721, 2829, 3047, 3046, 4152, 4260
2349, 2558, 1547, 1548, 2603, 3989, 2978, 2979, 4034
2350, 2691, 1529, 1530, 2566, 4122, 2960, 2961, 3997
2351, 1595, 1594, 2732, 2731, 3026, 3025, 4163, 4162
2352, 2730, 1597, 1596, 2637, 4161, 3028, 3027, 4068
2353, 2692, 1527, 1528, 2567, 4123, 2958, 2959, 3998
2354, 1591, 2641, 2733, 1592, 3022, 4072, 4164, 3023
2355, 2638, 2732, 1594, 1593, 4069, 4163, 3025, 3024
2356, 1435, 2583, 2715, 2597, 2866, 4014, 4146, 4028
2357, 2639, 2640, 1588, 1587, 4070, 4071, 3019, 3018
2358, 2715, 2641, 1590, 1589, 4146, 4072, 3021, 3020
2359, 1520, 1521, 2773, 2579, 2951, 2952, 4204, 4010
2360, 2604, 1519, 1520, 2579, 4035, 2950, 2951, 4010
2361, 2578, 1518, 1519, 2604, 4009, 2949, 2950, 4035
2362, 2642, 2712, 1579, 1578, 4073, 4143, 3010, 3009
2363, 1581, 1580, 2713, 2643, 3012, 3011, 4144, 4074
2364, 2714, 2643, 2839, 2840, 4145, 4074, 4270, 4271
2365, 1522, 1523, 2768, 2580, 2953, 2954, 4199, 4011
2366, 2693, 1517, 1518, 2578, 4124, 2948, 2949, 4009
2367, 1577, 1576, 2644, 2711, 3008, 3007, 4075, 4142
2368, 2711, 2642, 1578, 1577, 4142, 4073, 3009, 3008
2369, 2783, 1515, 1516, 2577, 4214, 2946, 2947, 4008
2370, 2576, 1513, 1514, 2813, 4007, 2944, 2945, 4244
2371, 1575, 1574, 2645, 2710, 3006, 3005, 4076, 4141
2372, 2645, 2782, 2576, 2832, 4076, 4213, 4007, 4263
2373, 1511, 1512, 2782, 2575, 2942, 2943, 4213, 4006
2374, 1573, 1572, 2646, 2709, 3004, 3003, 4077, 4140
2375, 2709, 2646, 2781, 2575, 4140, 4077, 4212, 4006
2376, 2781, 2574, 1509, 1510, 4212, 4005, 2940, 2941
2377, 2647, 2707, 1570, 1569, 4078, 4138, 3001, 3000
2378, 2831, 2708, 2707, 2854, 4262, 4139, 4138, 4285
2379, 1508, 1509, 2574, 2648, 2939, 2940, 4005, 4079
2380, 1568, 1567, 2649, 2706, 2999, 2998, 4080, 4137
2381, 2706, 2647, 1569, 1568, 4137, 4078, 3000, 2999
2382, 1508, 2648, 2573, 1507, 2939, 4079, 4004, 2938
2383, 1506, 1507, 2573, 2650, 2937, 2938, 4004, 4081
2384, 1566, 1565, 2654, 2705, 2997, 2996, 4085, 4136
2385, 2705, 2649, 1567, 1566, 4136, 4080, 2998, 2997
2386, 1505, 1506, 2650, 2572, 2936, 2937, 4081, 4003
2387, 2694, 1504, 1505, 2572, 4125, 2935, 2936, 4003
2388, 2769, 1502, 1503, 2571, 4200, 2933, 2934, 4002
2389, 2695, 1500, 1501, 2570, 4126, 2931, 2932, 4001
2390, 2798, 1498, 1499, 2569, 4229, 2929, 2930, 4000
2391, 2568, 2807, 2655, 1434, 3999, 4238, 4086, 2865
2392, 1693, 1692, 2651, 2763, 3124, 3123, 4082, 4194
2393, 1556, 2810, 2700, 1557, 2987, 4241, 4131, 2988
2394, 1694, 2652, 2810, 1695, 3125, 4083, 4241, 3126
2395, 2683, 2798, 2569, 2701, 4114, 4229, 4000, 4132
2396, 2684, 2790, 2793, 2702, 4115, 4221, 4224, 4133
2397, 2653, 2704, 1564, 1563, 4084, 4135, 2995, 2994
2398, 2704, 2654, 1565, 1564, 4135, 4085, 2996, 2995
2399, 2694, 2571, 1503, 1504, 4125, 4002, 2934, 2935
2400, 1434, 2655, 2584, 1497, 2865, 4086, 4015, 2928
2401, 1497, 2584, 2658, 1496, 2928, 4015, 4089, 2927
2402, 1691, 1690, 2656, 2657, 3122, 3121, 4087, 4088
2403, 1692, 1691, 2657, 2651, 3123, 3122, 4088, 4082
2404, 1496, 2658, 2585, 1495, 2927, 4089, 4016, 2926
2405, 1495, 2585, 2661, 1494, 2926, 4016, 4092, 2925
2406, 1689, 1688, 2659, 2660, 3120, 3119, 4090, 4091
2407, 1690, 1689, 2660, 2656, 3121, 3120, 4091, 4087
2408, 1493, 1494, 2661, 2586, 2924, 2925, 4092, 4017
2409, 2772, 2587, 1491, 1492, 4203, 4018, 2922, 2923
2410, 1687, 1686, 2859, 2762, 3118, 3117, 4290, 4193
2411, 2859, 2772, 2659, 2762, 4290, 4203, 4090, 4193
2412, 1492, 1493, 2586, 2772, 2923, 2924, 4017, 4203
2413, 2600, 1490, 1491, 2587, 4031, 2921, 2922, 4018
2414, 2696, 1488, 1489, 2588, 4127, 2919, 2920, 4019
2415, 2589, 2779, 1486, 1487, 4020, 4210, 2917, 2918
2416, 1485, 2814, 2590, 1484, 2916, 4245, 4021, 2915
2417, 2778, 2591, 1482, 1483, 4209, 4022, 2913, 2914
2418, 1480, 1481, 2787, 2592, 2911, 2912, 4218, 4023
2419, 1479, 2662, 2593, 1478, 2910, 4093, 4024, 2909
2420, 2795, 2663, 2594, 2602, 4226, 4094, 4025, 4033
2421, 2753, 2664, 1670, 1669, 4184, 4095, 3101, 3100
2422, 1669, 1668, 2665, 2753, 3100, 3099, 4096, 4184
2423, 2752, 2665, 1668, 1667, 4183, 4096, 3099, 3098
2424, 1665, 2666, 2751, 1666, 3096, 4097, 4182, 3097
2425, 1664, 1663, 2667, 2750, 3095, 3094, 4098, 4181
2426, 1439, 1660, 2668, 1661, 2870, 3091, 4099, 3092
2427, 1661, 2668, 2749, 1662, 3092, 4099, 4180, 3093
2428, 2765, 1473, 1474, 2595, 4196, 2904, 2905, 4026
2429, 2698, 1471, 1472, 2596, 4129, 2902, 2903, 4027
2430, 2699, 1469, 1470, 2538, 4130, 2900, 2901, 3969
2431, 2714, 2669, 1583, 1582, 4145, 4100, 3014, 3013
2432, 1584, 1583, 2669, 2670, 3015, 3014, 4100, 4101
2433, 1524, 1525, 2599, 2581, 2955, 2956, 4030, 4012
2434, 1585, 1584, 2670, 2671, 3016, 3015, 4101, 4102
2435, 1587, 1586, 2672, 2639, 3018, 3017, 4103, 4070
2436, 1435, 2597, 2582, 1526, 2866, 4028, 4013, 2957
2437, 2666, 2750, 2856, 2857, 4097, 4181, 4287, 4288
2438, 2593, 2855, 2795, 2602, 4024, 4286, 4226, 4033
2439, 2662, 2852, 2855, 2593, 4093, 4283, 4286, 4024
2440, 2756, 2755, 2804, 2592, 4187, 4186, 4235, 4023
2441, 2756, 2675, 1677, 1676, 4187, 4106, 3108, 3107
2442, 2787, 2591, 2757, 2675, 4218, 4022, 4188, 4106
2443, 2757, 2676, 1679, 1678, 4188, 4107, 3110, 3109
2444, 2778, 2590, 2758, 2676, 4209, 4021, 4189, 4107
2445, 2758, 2677, 1681, 1680, 4189, 4108, 3112, 3111
2446, 2780, 2759, 2677, 2589, 4211, 4190, 4108, 4020
2447, 1488, 2696, 2589, 1487, 2919, 4127, 4020, 2918
2448, 2678, 2760, 1684, 1683, 4109, 4191, 3115, 3114
2449, 1686, 1685, 2761, 2859, 3117, 3116, 4192, 4290
2450, 2588, 1489, 1490, 2600, 4019, 2920, 2921, 4031
2451, 2679, 2735, 1629, 1628, 4110, 4166, 3060, 3059
2452, 2680, 2736, 1631, 1630, 4111, 4167, 3062, 3061
2453, 2687, 2792, 2849, 2537, 4118, 4223, 4280, 3968
2454, 2737, 2621, 1633, 1632, 4168, 4052, 3064, 3063
2455, 2540, 1443, 1444, 2767, 3971, 2874, 2875, 4198
2456, 1433, 2681, 2552, 1468, 2864, 4112, 3983, 2899
2457, 1433, 2553, 2806, 2681, 2864, 3984, 4237, 4112
2458, 1543, 1544, 2775, 2812, 2974, 2975, 4206, 4243
2459, 2777, 2561, 2725, 2633, 4208, 3992, 4156, 4064
2460, 2850, 2774, 2632, 2727, 4281, 4205, 4063, 4158
2461, 2682, 2797, 2830, 2728, 4113, 4228, 4261, 4159
2462, 2797, 2682, 2564, 2629, 4228, 4113, 3995, 4060
2463, 2682, 2729, 2690, 2564, 4113, 4160, 4121, 3995
2464, 2683, 2701, 1559, 1558, 4114, 4132, 2990, 2989
2465, 2700, 2568, 2798, 2683, 4131, 3999, 4229, 4114
2466, 2684, 2702, 1561, 1560, 4115, 4133, 2992, 2991
2467, 2701, 2569, 2790, 2684, 4132, 4000, 4221, 4115
2468, 2703, 2653, 1563, 1562, 4134, 4084, 2994, 2993
2469, 2570, 1501, 1502, 2769, 4001, 2932, 2933, 4200
2470, 2598, 1467, 1468, 2552, 4029, 2898, 2899, 3983
2471, 2764, 1465, 1466, 2551, 4195, 2896, 2897, 3982
2472, 2550, 2770, 1463, 1464, 3981, 4201, 2894, 2895
2473, 2547, 1458, 1459, 2685, 3978, 2889, 2890, 4116
2474, 2786, 2811, 1456, 1457, 4217, 4242, 2887, 2888
2475, 2546, 2785, 1454, 1455, 3977, 4216, 2885, 2886
2476, 2545, 2784, 1452, 1453, 3976, 4215, 2883, 2884
2477, 2537, 1441, 1442, 2687, 3968, 2872, 2873, 4118
2478, 2539, 1432, 1440, 2688, 3970, 2863, 2871, 4119
2479, 2559, 1545, 1546, 2689, 3990, 2976, 2977, 4120
2480, 2560, 2776, 1541, 1542, 3991, 4207, 2972, 2973
2481, 2561, 2777, 1539, 1540, 3992, 4208, 2970, 2971
2482, 2562, 2628, 1537, 1538, 3993, 4059, 2968, 2969
2483, 2629, 1535, 1536, 2563, 4060, 2966, 2967, 3994
2484, 2567, 1528, 1529, 2691, 3998, 2959, 2960, 4122
2485, 2583, 1435, 1527, 2692, 4014, 2866, 2958, 4123
2486, 2599, 1525, 1526, 2582, 4030, 2956, 2957, 4013
2487, 2768, 1523, 1524, 2581, 4199, 2954, 2955, 4012
2488, 2580, 2773, 1521, 1522, 4011, 4204, 2952, 2953
2489, 2577, 1516, 1517, 2693, 4008, 2947, 2948, 4124
2490, 2813, 1514, 1515, 2783, 4244, 2945, 2946, 4214
2491, 2576, 2782, 1512, 1513, 4007, 4213, 2943, 2944
2492, 2575, 2781, 1510, 1511, 4006, 4212, 2941, 2942
2493, 2569, 1499, 1500, 2695, 4000, 2930, 2931, 4126
2494, 2798, 2568, 1434, 1498, 4229, 3999, 2865, 2929
2495, 2814, 1485, 1486, 2779, 4245, 2916, 2917, 4210
2496, 2778, 1483, 1484, 2590, 4209, 2914, 2915, 4021
2497, 2591, 2787, 1481, 1482, 4022, 4218, 2912, 2913
2498, 2592, 2662, 1479, 1480, 4023, 4093, 2910, 2911
2499, 2602, 1477, 1478, 2593, 4033, 2908, 2909, 4024
2500, 2569, 2695, 2793, 2790, 4000, 4126, 4224, 4221
2501, 2654, 2704, 2825, 2826, 4085, 4135, 4256, 4257
2502, 1572, 1571, 2708, 2646, 3003, 3002, 4139, 4077
2503, 1574, 1573, 2709, 2645, 3005, 3004, 4140, 4076
2504, 1576, 1575, 2710, 2644, 3007, 3006, 4141, 4075
2505, 1580, 1579, 2712, 2713, 3011, 3010, 4143, 4144
2506, 2842, 2670, 2669, 2841, 4273, 4101, 4100, 4272
2507, 2799, 2819, 2581, 2599, 4230, 4250, 4012, 4030
2508, 2583, 2733, 2641, 2715, 4014, 4164, 4072, 4146
2509, 2641, 1591, 1437, 1590, 4072, 3022, 2868, 3021
2510, 2620, 1626, 1438, 1625, 4051, 3057, 2869, 3056
2511, 2539, 2734, 2620, 2716, 3970, 4165, 4051, 4147
2512, 2821, 2717, 2718, 2801, 4252, 4148, 4149, 4232
2513, 1620, 1619, 2719, 2624, 3051, 3050, 4150, 4055
2514, 1618, 1617, 2720, 2626, 3049, 3048, 4151, 4057
2515, 1615, 1614, 2636, 2721, 3046, 3045, 4067, 4152
2516, 1614, 1613, 2722, 2636, 3045, 3044, 4153, 4067
2517, 2561, 2776, 2634, 2725, 3992, 4207, 4065, 4156
2518, 1605, 1604, 2727, 2632, 3036, 3035, 4158, 4063
2519, 2567, 2845, 2731, 2732, 3998, 4276, 4162, 4163
2520, 1627, 2734, 2679, 1628, 3058, 4165, 4110, 3059
2521, 2537, 2849, 2680, 2735, 3968, 4280, 4111, 4166
2522, 2738, 2622, 2847, 2686, 4169, 4053, 4278, 4117
2523, 1642, 1641, 2741, 2614, 3073, 3072, 4172, 4045
2524, 1644, 1643, 2742, 2613, 3075, 3074, 4173, 4044
2525, 1646, 1645, 2743, 2612, 3077, 3076, 4174, 4043
2526, 1650, 1649, 2745, 2746, 3081, 3080, 4176, 4177
2527, 2764, 2824, 2607, 2673, 4195, 4255, 4038, 4104
2528, 2611, 2610, 2802, 2806, 4042, 4041, 4233, 4237
2529, 2553, 2748, 2611, 2806, 3984, 4179, 4042, 4237
2530, 2553, 2749, 2668, 2748, 3984, 4180, 4099, 4179
2531, 1665, 1664, 2750, 2666, 3096, 3095, 4181, 4097
2532, 2751, 2789, 2698, 2596, 4182, 4220, 4129, 4027
2533, 2663, 1672, 1671, 2862, 4094, 3103, 3102, 4293
2534, 2855, 2852, 2674, 2754, 4286, 4283, 4105, 4185
2535, 1675, 1674, 2674, 2755, 3106, 3105, 4105, 4186
2536, 2591, 2778, 2676, 2757, 4022, 4209, 4107, 4188
2537, 2589, 2677, 2814, 2779, 4020, 4108, 4245, 4210
2538, 2759, 2780, 2861, 2678, 4190, 4211, 4292, 4109
2539, 2761, 1685, 1684, 2760, 4192, 3116, 3115, 4191
2540, 1688, 1687, 2762, 2659, 3119, 3118, 4193, 4090
2541, 2772, 2586, 2660, 2659, 4203, 4017, 4091, 4090
2542, 2651, 2657, 2808, 2800, 4082, 4088, 4239, 4231
2543, 2763, 2807, 2568, 2652, 4194, 4238, 3999, 4083
2544, 1695, 2810, 1556, 1436, 3126, 4241, 2987, 2867
2545, 2610, 2609, 2809, 2802, 4041, 4040, 4240, 4233
2546, 2678, 2861, 2860, 2760, 4109, 4292, 4291, 4191
2547, 2693, 2578, 2837, 2836, 4124, 4009, 4268, 4267
2548, 2744, 2685, 2548, 2605, 4175, 4116, 3979, 4036
2549, 2612, 2547, 2685, 2744, 4043, 3978, 4116, 4175
2550, 2606, 2747, 1652, 1651, 4037, 4178, 3083, 3082
2551, 2745, 2601, 2549, 2746, 4176, 4032, 3980, 4177
2552, 2551, 2598, 2809, 2823, 3982, 4029, 4240, 4254
2553, 2809, 2598, 2552, 2802, 4240, 4029, 3983, 4233
2554, 2611, 2748, 1659, 1658, 4042, 4179, 3090, 3089
2555, 2811, 2786, 2547, 2612, 4242, 4217, 3978, 4043
2556, 2544, 2784, 2614, 2741, 3975, 4215, 4045, 4172
2557, 2617, 2796, 2846, 2739, 4048, 4227, 4277, 4170
2558, 2543, 2846, 2796, 2618, 3974, 4277, 4227, 4049
2559, 2617, 2738, 2686, 2542, 4048, 4169, 4117, 3973
2560, 2796, 2617, 2542, 2618, 4227, 4048, 3973, 4049
2561, 2821, 2820, 2619, 2717, 4252, 4251, 4050, 4148
2562, 2737, 2767, 2541, 2621, 4168, 4198, 3972, 4052
2563, 2767, 2737, 2848, 2540, 4198, 4168, 4279, 3971
2564, 2821, 2554, 2623, 2820, 4252, 3985, 4054, 4251
2565, 2771, 2556, 2719, 2626, 4202, 3987, 4150, 4057
2566, 2636, 2603, 2557, 2721, 4067, 4034, 3988, 4152
2567, 2730, 2766, 2565, 2630, 4161, 4197, 3996, 4061
2568, 2766, 2730, 2844, 2566, 4197, 4161, 4275, 3997
2569, 2631, 2729, 1601, 1600, 4062, 4160, 3032, 3031
2570, 2632, 2726, 1606, 1605, 4063, 4157, 3037, 3036
2571, 2726, 2633, 1607, 1606, 4157, 4064, 3038, 3037
2572, 2633, 2725, 1608, 1607, 4064, 4156, 3039, 3038
2573, 2725, 2634, 1609, 1608, 4156, 4065, 3040, 3039
2574, 2634, 2724, 1610, 1609, 4065, 4155, 3041, 3040
2575, 2724, 2635, 1611, 1610, 4155, 4066, 3042, 3041
2576, 2635, 2723, 1612, 1611, 4066, 4154, 3043, 3042
2577, 2731, 2845, 2791, 2637, 4162, 4276, 4222, 4068
2578, 2582, 2818, 2799, 2599, 4013, 4249, 4230, 4030
2579, 2640, 2715, 1589, 1588, 4071, 4146, 3020, 3019
2580, 2818, 2582, 2597, 2817, 4249, 4013, 4028, 4248
2581, 2711, 2835, 2836, 2642, 4142, 4266, 4267, 4073
2582, 2643, 2714, 1582, 1581, 4074, 4145, 3013, 3012
2583, 2837, 2578, 2604, 2838, 4268, 4009, 4035, 4269
2584, 2813, 2783, 2834, 2833, 4244, 4214, 4265, 4264
2585, 2645, 2832, 2833, 2710, 4076, 4263, 4264, 4141
2586, 2647, 2803, 2854, 2707, 4078, 4234, 4285, 4138
2587, 2803, 2647, 2573, 2648, 4234, 4078, 4004, 4079
2588, 2573, 2647, 2706, 2853, 4004, 4078, 4137, 4284
2589, 2794, 2649, 2705, 2828, 4225, 4080, 4136, 4259
2590, 2794, 2828, 2572, 2650, 4225, 4259, 4003, 4081
2591, 2584, 2800, 2808, 2658, 4015, 4231, 4239, 4089
2592, 2763, 2652, 1694, 1693, 4194, 4083, 3125, 3124
2593, 2570, 2769, 2816, 2815, 4001, 4200, 4247, 4246
2594, 2571, 2694, 2826, 2825, 4002, 4125, 4257, 4256
2595, 2807, 2800, 2584, 2655, 4238, 4231, 4015, 4086
2596, 2586, 2661, 2656, 2660, 4017, 4092, 4087, 4091
2597, 2858, 2585, 2658, 2808, 4289, 4016, 4089, 4239
2598, 2657, 2656, 2858, 2808, 4088, 4087, 4289, 4239
2599, 2788, 2600, 2587, 2761, 4219, 4031, 4018, 4192
2600, 2663, 2795, 2855, 2754, 4094, 4226, 4286, 4185
2601, 2663, 2754, 1673, 1672, 4094, 4185, 3104, 3103
2602, 2697, 2753, 2665, 2595, 4128, 4184, 4096, 4026
2603, 1671, 1670, 2664, 2862, 3102, 3101, 4095, 4293
2604, 2752, 2765, 2595, 2665, 4183, 4196, 4026, 4096
2605, 2667, 2699, 2856, 2750, 4098, 4130, 4287, 4181
2606, 2749, 2667, 1663, 1662, 4180, 4098, 3094, 3093
2607, 2748, 2668, 1660, 1659, 4179, 4099, 3091, 3090
2608, 2839, 2579, 2773, 2840, 4270, 4010, 4204, 4271
2609, 2842, 2819, 2671, 2670, 4273, 4250, 4102, 4101
2610, 1586, 1585, 2671, 2672, 3017, 3016, 4102, 4103
2611, 2818, 2639, 2672, 2799, 4249, 4070, 4103, 4230
2612, 2606, 2770, 2673, 2747, 4037, 4201, 4104, 4178
2613, 2747, 2673, 1653, 1652, 4178, 4104, 3084, 3083
2614, 2754, 2674, 1674, 1673, 4185, 4105, 3105, 3104
2615, 2675, 2757, 1678, 1677, 4106, 4188, 3109, 3108
2616, 2592, 2787, 2675, 2756, 4023, 4218, 4106, 4187
2617, 2676, 2758, 1680, 1679, 4107, 4189, 3111, 3110
2618, 2677, 2759, 1682, 1681, 4108, 4190, 3113, 3112
2619, 1682, 2759, 2678, 1683, 3113, 4190, 4109, 3114
2620, 2589, 2696, 2861, 2780, 4020, 4127, 4292, 4211
2621, 2679, 2688, 2537, 2735, 4110, 4119, 3968, 4166
2622, 2735, 2680, 1630, 1629, 4166, 4111, 3061, 3060
2623, 2802, 2552, 2681, 2806, 4233, 3983, 4112, 4237
2624, 2729, 2682, 1602, 1601, 4160, 4113, 3033, 3032
2625, 2682, 2728, 1603, 1602, 4113, 4159, 3034, 3033
2626, 2810, 2652, 2568, 2700, 4241, 4083, 3999, 4131
2627, 2700, 2683, 1558, 1557, 4131, 4114, 2989, 2988
2628, 2701, 2684, 1560, 1559, 4132, 4115, 2991, 2990
2629, 2690, 2843, 2630, 2565, 4121, 4274, 4061, 3996
2630, 2691, 2791, 2845, 2567, 4122, 4222, 4276, 3998
2631, 2769, 2571, 2825, 2816, 4200, 4002, 4256, 4247
2632, 2698, 2789, 2857, 2538, 4129, 4220, 4288, 3969
2633, 2749, 2553, 2699, 2667, 4180, 3984, 4130, 4098
2634, 1562, 1561, 2702, 2703, 2993, 2992, 4133, 4134
2635, 2825, 2704, 2653, 2816, 4256, 4135, 4084, 4247
2636, 2572, 2828, 2705, 2694, 4003, 4259, 4136, 4125
2637, 2649, 2794, 2853, 2706, 4080, 4225, 4284, 4137
2638, 1571, 1570, 2707, 2708, 3002, 3001, 4138, 4139
2639, 2854, 2803, 2648, 2574, 4285, 4234, 4079, 4005
2640, 2835, 2834, 2783, 2577, 4266, 4265, 4214, 4008
2641, 2712, 2642, 2836, 2837, 4143, 4073, 4267, 4268
2642, 2837, 2838, 2713, 2712, 4268, 4269, 4144, 4143
2643, 2801, 2822, 2555, 2625, 4232, 4253, 3986, 4056
2644, 2822, 2624, 2719, 2827, 4253, 4055, 4150, 4258
2645, 2723, 2722, 1613, 1612, 4154, 4153, 3044, 3043
2646, 2722, 2558, 2603, 2636, 4153, 3989, 4034, 4067
2647, 2728, 2727, 1604, 1603, 4159, 4158, 3035, 3034
2648, 2638, 2692, 2567, 2732, 4069, 4123, 3998, 4163
2649, 2638, 1593, 1592, 2733, 4069, 3024, 3023, 4164
2650, 2737, 1632, 1631, 2736, 4168, 3063, 3062, 4167
2651, 1641, 1640, 2740, 2741, 3072, 3071, 4171, 4172
2652, 2851, 2616, 2544, 2805, 4282, 4047, 3975, 4236
2653, 2545, 2785, 2613, 2742, 3976, 4216, 4044, 4173
2654, 2605, 2548, 2601, 2745, 4036, 3979, 4032, 4176
2655, 2746, 2549, 2770, 2606, 4177, 3980, 4201, 4037
2656, 2751, 2666, 2857, 2789, 4182, 4097, 4288, 4220
2657, 1667, 1666, 2751, 2752, 3098, 3097, 4182, 4183
2658, 2862, 2664, 2753, 2697, 4293, 4095, 4184, 4128
2659, 2697, 2594, 2663, 2862, 4128, 4025, 4094, 4293
2660, 1676, 1675, 2755, 2756, 3107, 3106, 4186, 4187
2661, 2852, 2662, 2592, 2804, 4283, 4093, 4023, 4235
2662, 2761, 2760, 2860, 2788, 4192, 4191, 4291, 4219
2663, 2807, 2763, 2651, 2800, 4238, 4194, 4082, 4231
2664, 2607, 2824, 2823, 2608, 4038, 4255, 4254, 4039
2665, 2751, 2596, 2765, 2752, 4182, 4027, 4196, 4183
2666, 2695, 2570, 2815, 2793, 4126, 4001, 4246, 4224
2667, 2761, 2587, 2772, 2859, 4192, 4018, 4203, 4290
2668, 2850, 2628, 2562, 2774, 4281, 4059, 3993, 4205
2669, 2560, 2812, 2775, 2724, 3991, 4243, 4206, 4155
2670, 2831, 2854, 2574, 2781, 4262, 4285, 4005, 4212
2671, 2575, 2782, 2645, 2709, 4006, 4213, 4076, 4140
2672, 2693, 2836, 2835, 2577, 4124, 4267, 4266, 4008
2673, 2860, 2588, 2600, 2788, 4291, 4019, 4031, 4219
2674, 2730, 2637, 2791, 2844, 4161, 4068, 4222, 4275
2675, 2680, 2849, 2792, 2736, 4111, 4280, 4223, 4167
2676, 2815, 2703, 2702, 2793, 4246, 4134, 4133, 4224
2677, 2852, 2804, 2755, 2674, 4283, 4235, 4186, 4105
2678, 2851, 2805, 2740, 2615, 4282, 4236, 4171, 4046
2679, 2715, 2640, 2817, 2597, 4146, 4071, 4248, 4028
2680, 2716, 2619, 2820, 2623, 4147, 4050, 4251, 4054
2681, 2671, 2819, 2799, 2672, 4102, 4250, 4230, 4103
2682, 2824, 2764, 2551, 2823, 4255, 4195, 3982, 4254
2683, 2823, 2809, 2609, 2608, 4254, 4240, 4040, 4039
2684, 2718, 2624, 2822, 2801, 4149, 4055, 4253, 4232
2685, 2612, 2743, 2546, 2811, 4043, 4174, 3977, 4242
2686, 2834, 2644, 2710, 2833, 4265, 4075, 4141, 4264
2687, 2833, 2832, 2576, 2813, 4264, 4263, 4007, 4244
2688, 2677, 2758, 2590, 2814, 4108, 4189, 4021, 4245
2689, 2816, 2653, 2703, 2815, 4247, 4084, 4134, 4246
2690, 2818, 2817, 2640, 2639, 4249, 4248, 4071, 4070
2691, 2842, 2768, 2581, 2819, 4273, 4199, 4012, 4250
2692, 2801, 2625, 2554, 2821, 4232, 4056, 3985, 4252
2693, 2768, 2842, 2841, 2580, 4199, 4273, 4272, 4011
2694, 2694, 2705, 2654, 2826, 4125, 4136, 4085, 4257
2695, 2627, 2555, 2822, 2827, 4058, 3986, 4253, 4258
2696, 2689, 2723, 2635, 2559, 4120, 4154, 4066, 3990
2697, 2830, 2850, 2727, 2728, 4261, 4281, 4158, 4159
2698, 2781, 2646, 2708, 2831, 4212, 4077, 4139, 4262
2699, 2834, 2835, 2711, 2644, 4265, 4266, 4142, 4075
2700, 2643, 2713, 2838, 2839, 4074, 4144, 4269, 4270
2701, 2579, 2839, 2838, 2604, 4010, 4270, 4269, 4035
2702, 2773, 2669, 2714, 2840, 4204, 4100, 4145, 4271
2703, 2669, 2773, 2580, 2841, 4100, 4204, 4011, 4272
2704, 2791, 2691, 2566, 2844, 4222, 4122, 3997, 4275
2705, 2616, 2851, 2846, 2543, 4047, 4282, 4277, 3974
2706, 2846, 2851, 2615, 2739, 4277, 4282, 4046, 4170
2707, 2792, 2687, 2540, 2848, 4223, 4118, 3971, 4279
2708, 2621, 2541, 2686, 2847, 4052, 3972, 4117, 4278
2709, 2721, 2557, 2771, 2829, 4152, 3988, 4202, 4260
2710, 2830, 2563, 2628, 2850, 4261, 3994, 4059, 4281
2711, 2679, 2734, 2539, 2688, 4110, 4165, 3970, 4119
2712, 2638, 2733, 2583, 2692, 4069, 4164, 4014, 4123
2713, 2794, 2650, 2573, 2853, 4225, 4081, 4004, 4284
2714, 2538, 2857, 2856, 2699, 3969, 4288, 4287, 4130
2715, 2656, 2661, 2585, 2858, 4087, 4092, 4016, 4289
2716, 2696, 2588, 2860, 2861, 4127, 4019, 4291, 4292
2717, 2986, 3127, 2871, 2863, 4417, 4558, 4302, 4294
2718, 3127, 3128, 2872, 2871, 4558, 4559, 4303, 4302
2719, 3128, 3129, 2873, 2872, 4559, 4560, 4304, 4303
2720, 3129, 3130, 2874, 2873, 4560, 4561, 4305, 4304
2721, 3130, 3131, 2875, 2874, 4561, 4562, 4306, 4305
2722, 3131, 3132, 2876, 2875, 4562, 4563, 4307, 4306
2723, 3132, 3133, 2877, 2876, 4563, 4564, 4308, 4307
2724, 3133, 3134, 2878, 2877, 4564, 4565, 4309, 4308
2725, 3134, 3135, 2879, 2878, 4565, 4566, 4310, 4309
2726, 3135, 3136, 2880, 2879, 4566, 4567, 4311, 4310
2727, 3136, 3137, 2881, 2880, 4567, 4568, 4312, 4311
2728, 3137, 3138, 2882, 2881, 4568, 4569, 4313, 4312
2729, 3138, 3139, 2883, 2882, 4569, 4570, 4314, 4313
2730, 3139, 3140, 2884, 2883, 4570, 4571, 4315, 4314
2731, 3140, 3141, 2885, 2884, 4571, 4572, 4316, 4315
2732, 3141, 3142, 2886, 2885, 4572, 4573, 4317, 4316
2733, 3142, 3143, 2887, 2886, 4573, 4574, 4318, 4317
2734, 3143, 3144, 2888, 2887, 4574, 4575, 4319, 4318
2735, 3144, 3145, 2889, 2888, 4575, 4576, 4320, 4319
2736, 3145, 3146, 2890, 2889, 4576, 4577, 4321, 4320
2737, 3146, 3147, 2891, 2890, 4577, 4578, 4322, 4321
2738, 3147, 3148, 2892, 2891, 4578, 4579, 4323, 4322
2739, 3148, 3149, 2893, 2892, 4579, 4580, 4324, 4323
2740, 3149, 3150, 2894, 2893, 4580, 4581, 4325, 4324
2741, 3150, 3151, 2895, 2894, 4581, 4582, 4326, 4325
2742, 3151, 3152, 2896, 2895, 4582, 4583, 4327, 4326
2743, 3152, 3153, 2897, 2896, 4583, 4584, 4328, 4327
2744, 3153, 3154, 2898, 2897, 4584, 4585, 4329, 4328
2745, 3154, 3155, 2899, 2898, 4585, 4586, 4330, 4329
2746, 3155, 2900, 2864, 2899, 4586, 4331, 4295, 4330
2747, 2985, 3156, 3127, 2986, 4416, 4587, 4558, 4417
2748, 3156, 3157, 3128, 3127, 4587, 4588, 4559, 4558
2749, 3157, 3158, 3129, 3128, 4588, 4589, 4560, 4559
2750, 3158, 3159, 3130, 3129, 4589, 4590, 4561, 4560
2751, 3159, 3160, 3131, 3130, 4590, 4591, 4562, 4561
2752, 3160, 3161, 3132, 3131, 4591, 4592, 4563, 4562
2753, 3161, 3162, 3133, 3132, 4592, 4593, 4564, 4563
2754, 3162, 3163, 3134, 3133, 4593, 4594, 4565, 4564
2755, 3163, 3164, 3135, 3134, 4594, 4595, 4566, 4565
2756, 3164, 3165, 3136, 3135, 4595, 4596, 4567, 4566
2757, 3165, 3166, 3137, 3136, 4596, 4597, 4568, 4567
2758, 3166, 3167, 3138, 3137, 4597, 4598, 4569, 4568
2759, 3167, 3168, 3139, 3138, 4598, 4599, 4570, 4569
2760, 3168, 3169, 3140, 3139, 4599, 4600, 4571, 4570
2761, 3169, 3170, 3141, 3140, 4600, 4601, 4572, 4571
2762, 3170, 3171, 3142, 3141, 4601, 4602, 4573, 4572
2763, 3171, 3172, 3143, 3142, 4602, 4603, 4574, 4573
2764, 3172, 3173, 3144, 3143, 4603, 4604, 4575, 4574
2765, 3173, 3174, 3145, 3144, 4604, 4605, 4576, 4575
2766, 3174, 3175, 3146, 3145, 4605, 4606, 4577, 4576
2767, 3175, 3176, 3147, 3146, 4606, 4607, 4578, 4577
2768, 3176, 3177, 3148, 3147, 4607, 4608, 4579, 4578
2769, 3177, 3178, 3149, 3148, 4608, 4609, 4580, 4579
2770, 3178, 3179, 3150, 3149, 4609, 4610, 4581, 4580
2771, 3179, 3180, 3151, 3150, 4610, 4611, 4582, 4581
2772, 3180, 3181, 3152, 3151, 4611, 4612, 4583, 4582
2773, 3181, 3182, 3153, 3152, 4612, 4613, 4584, 4583
2774, 3182, 3183, 3154, 3153, 4613, 4614, 4585, 4584
2775, 3183, 3184, 3155, 3154, 4614, 4615, 4586, 4585
2776, 3184, 2901, 2900, 3155, 4615, 4332, 4331, 4586
2777, 2984, 3185, 3156, 2985, 4415, 4616, 4587, 4416
2778, 3185, 3186, 3157, 3156, 4616, 4617, 4588, 4587
2779, 3186, 3187, 3158, 3157, 4617, 4618, 4589, 4588
2780, 3187, 3188, 3159, 3158, 4618, 4619, 4590, 4589
2781, 3188, 3189, 3160, 3159, 4619, 4620, 4591, 4590
2782, 3189, 3190, 3161, 3160, 4620, 4621, 4592, 4591
2783, 3190, 3191, 3162, 3161, 4621, 4622, 4593, 4592
2784, 3191, 3192, 3163, 3162, 4622, 4623, 4594, 4593
2785, 3192, 3193, 3164, 3163, 4623, 4624, 4595, 4594
2786, 3193, 3194, 3165, 3164, 4624, 4625, 4596, 4595
2787, 3194, 3195, 3166, 3165, 4625, 4626, 4597, 4596
2788, 3195, 3196, 3167, 3166, 4626, 4627, 4598, 4597
2789, 3196, 3197, 3168, 3167, 4627, 4628, 4599, 4598
2790, 3197, 3198, 3169, 3168, 4628, 4629, 4600, 4599
2791, 3198, 3199, 3170, 3169, 4629, 4630, 4601, 4600
2792, 3199, 3200, 3171, 3170, 4630, 4631, 4602, 4601
2793, 3200, 3201, 3172, 3171, 4631, 4632, 4603, 4602
2794, 3201, 3202, 3173, 3172, 4632, 4633, 4604, 4603
2795, 3202, 3203, 3174, 3173, 4633, 4634, 4605, 4604
2796, 3203, 3204, 3175, 3174, 4634, 4635, 4606, 4605
2797, 3204, 3205, 3176, 3175, 4635, 4636, 4607, 4606
2798, 3205, 3206, 3177, 3176, 4636, 4637, 4608, 4607
2799, 3206, 3207, 3178, 3177, 4637, 4638, 4609, 4608
2800, 3207, 3208, 3179, 3178, 4638, 4639, 4610, 4609
2801, 3208, 3209, 3180, 3179, 4639, 4640, 4611, 4610
2802, 3209, 3210, 3181, 3180, 4640, 4641, 4612, 4611
2803, 3210, 3211, 3182, 3181, 4641, 4642, 4613, 4612
2804, 3211, 3212, 3183, 3182, 4642, 4643, 4614, 4613
2805, 3212, 3213, 3184, 3183, 4643, 4644, 4615, 4614
2806, 3213, 2902, 2901, 3184, 4644, 4333, 4332, 4615
2807, 2983, 3214, 3185, 2984, 4414, 4645, 4616, 4415
2808, 3214, 3215, 3186, 3185, 4645, 4646, 4617, 4616
2809, 3215, 3216, 3187, 3186, 4646, 4647, 4618, 4617
2810, 3216, 3217, 3188, 3187, 4647, 4648, 4619, 4618
2811, 3217, 3218, 3189, 3188, 4648, 4649, 4620, 4619
2812, 3218, 3219, 3190, 3189, 4649, 4650, 4621, 4620
2813, 3219, 3220, 3191, 3190, 4650, 4651, 4622, 4621
2814, 3220, 3221, 3192, 3191, 4651, 4652, 4623, 4622
2815, 3221, 3222, 3193, 3192, 4652, 4653, 4624, 4623
2816, 3222, 3223, 3194, 3193, 4653, 4654, 4625, 4624
2817, 3223, 3224, 3195, 3194, 4654, 4655, 4626, 4625
2818, 3224, 3225, 3196, 3195, 4655, 4656, 4627, 4626
2819, 3225, 3226, 3197, 3196, 4656, 4657, 4628, 4627
2820, 3226, 3227, 3198, 3197, 4657, 4658, 4629, 4628
2821, 3227, 3228, 3199, 3198, 4658, 4659, 4630, 4629
2822, 3228, 3229, 3200, 3199, 4659, 4660, 4631, 4630
2823, 3229, 3230, 3201, 3200, 4660, 4661, 4632, 4631
2824, 3230, 3231, 3202, 3201, 4661, 4662, 4633, 4632
2825, 3231, 3232, 3203, 3202, 4662, 4663, 4634, 4633
2826, 3232, 3233, 3204, 3203, 4663, 4664, 4635, 4634
2827, 3233, 3234, 3205, 3204, 4664, 4665, 4636, 4635
2828, 3234, 3235, 3206, 3205, 4665, 4666, 4637, 4636
2829, 3235, 3236, 3207, 3206, 4666, 4667, 4638, 4637
2830, 3236, 3237, 3208, 3207, 4667, 4668, 4639, 4638
2831, 3237, 3238, 3209, 3208, 4668, 4669, 4640, 4639
2832, 3238, 3239, 3210, 3209, 4669, 4670, 4641, 4640
2833, 3239, 3240, 3211, 3210, 4670, 4671, 4642, 4641
2834, 3240, 3241, 3212, 3211, 4671, 4672, 4643, 4642
2835, 3241, 3242, 3213, 3212, 4672, 4673, 4644, 4643
2836, 3242, 2903, 2902, 3213, 4673, 4334, 4333, 4644
2837, 2982, 3243, 3214, 2983, 4413, 4674, 4645, 4414
2838, 3243, 3244, 3215, 3214, 4674, 4675, 4646, 4645
2839, 3244, 3245, 3216, 3215, 4675, 4676, 4647, 4646
2840, 3245, 3246, 3217, 3216, 4676, 4677, 4648, 4647
2841, 3246, 3247, 3218, 3217, 4677, 4678, 4649, 4648
2842, 3247, 3248, 3219, 3218, 4678, 4679, 4650, 4649
2843, 3248, 3249, 3220, 3219, 4679, 4680, 4651, 4650
2844, 3249, 3250, 3221, 3220, 4680, 4681, 4652, 4651
2845, 3250, 3251, 3222, 3221, 4681, 4682, 4653, 4652
2846, 3251, 3252, 3223, 3222, 4682, 4683, 4654, 4653
2847, 3252, 3253, 3224, 3223, 4683, 4684, 4655, 4654
2848, 3253, 3254, 3225, 3224, 4684, 4685, 4656, 4655
2849, 3254, 3255, 3226, 3225, 4685, 4686, 4657, 4656
2850, 3255, 3256, 3227, 3226, 4686, 4687, 4658, 4657
2851, 3256, 3257, 3228, 3227, 4687, 4688, 4659, 4658
2852, 3257, 3258, 3229, 3228, 4688, 4689, 4660, 4659
2853, 3258, 3259, 3230, 3229, 4689, 4690, 4661, 4660
2854, 3259, 3260, 3231, 3230, 4690, 4691, 4662, 4661
2855, 3260, 3261, 3232, 3231, 4691, 4692, 4663, 4662
2856, 3261, 3262, 3233, 3232, 4692, 4693, 4664, 4663
2857, 3262, 3263, 3234, 3233, 4693, 4694, 4665, 4664
2858, 3263, 3264, 3235, 3234, 4694, 4695, 4666, 4665
2859, 3264, 3265, 3236, 3235, 4695, 4696, 4667, 4666
2860, 3265, 3266, 3237, 3236, 4696, 4697, 4668, 4667
2861, 3266, 3267, 3238, 3237, 4697, 4698, 4669, 4668
2862, 3267, 3268, 3239, 3238, 4698, 4699, 4670, 4669
2863, 3268, 3269, 3240, 3239, 4699, 4700, 4671, 4670
2864, 3269, 3270, 3241, 3240, 4700, 4701, 4672, 4671
2865, 3270, 3271, 3242, 3241, 4701, 4702, 4673, 4672
2866, 3271, 2904, 2903, 3242, 4702, 4335, 4334, 4673
2867, 2981, 3272, 3243, 2982, 4412, 4703, 4674, 4413
2868, 3272, 3273, 3244, 3243, 4703, 4704, 4675, 4674
2869, 3273, 3274, 3245, 3244, 4704, 4705, 4676, 4675
2870, 3274, 3275, 3246, 3245, 4705, 4706, 4677, 4676
2871, 3275, 3276, 3247, 3246, 4706, 4707, 4678, 4677
2872, 3276, 3277, 3248, 3247, 4707, 4708, 4679, 4678
2873, 3277, 3278, 3249, 3248, 4708, 4709, 4680, 4679
2874, 3278, 3279, 3250, 3249, 4709, 4710, 4681, 4680
2875, 3279, 3280, 3251, 3250, 4710, 4711, 4682, 4681
2876, 3280, 3281, 3252, 3251, 4711, 4712, 4683, 4682
2877, 3281, 3282, 3253, 3252, 4712, 4713, 4684, 4683
2878, 3282, 3283, 3254, 3253, 4713, 4714, 4685, 4684
2879, 3283, 3284, 3255, 3254, 4714, 4715, 4686, 4685
2880, 3284, 3285, 3256, 3255, 4715, 4716, 4687, 4686
2881, 3285, 3286, 3257, 3256, 4716, 4717, 4688, 4687
2882, 3286, 3287, 3258, 3257, 4717, 4718, 4689, 4688
2883, 3287, 3288, 3259, 3258, 4718, 4719, 4690, 4689
2884, 3288, 3289, 3260, 3259, 4719, 4720, 4691, 4690
2885, 3289, 3290, 3261, 3260, 4720, 4721, 4692, 4691
2886, 3290, 3291, 3262, 3261, 4721, 4722, 4693, 4692
2887, 3291, 3292, 3263, 3262, 4722, 4723, 4694, 4693
2888, 3292, 3293, 3264, 3263, 4723, 4724, 4695, 4694
2889, 3293, 3294, 3265, 3264, 4724, 4725, 4696, 4695
2890, 3294, 3295, 3266, 3265, 4725, 4726, 4697, 4696
2891, 3295, 3296, 3267, 3266, 4726, 4727, 4698, 4697
2892, 3296, 3297, 3268, 3267, 4727, 4728, 4699, 4698
2893, 3297, 3298, 3269, 3268, 4728, 4729, 4700, 4699
2894, 3298, 3299, 3270, 3269, 4729, 4730, 4701, 4700
2895, 3299, 3300, 3271, 3270, 4730, 4731, 4702, 4701
2896, 3300, 2905, 2904, 3271, 4731, 4336, 4335, 4702
2897, 2980, 3301, 3272, 2981, 4411, 4732, 4703, 4412
2898, 3301, 3302, 3273, 3272, 4732, 4733, 4704, 4703
2899, 3302, 3303, 3274, 3273, 4733, 4734, 4705, 4704
2900, 3303, 3304, 3275, 3274, 4734, 4735, 4706, 4705
2901, 3304, 3305, 3276, 3275, 4735, 4736, 4707, 4706
2902, 3305, 3306, 3277, 3276, 4736, 4737, 4708, 4707
2903, 3306, 3307, 3278, 3277, 4737, 4738, 4709, 4708
2904, 3307, 3308, 3279, 3278, 4738, 4739, 4710, 4709
2905, 3308, 3309, 3280, 3279, 4739, 4740, 4711, 4710
2906, 3309, 3310, 3281, 3280, 4740, 4741, 4712, 4711
2907, 3310, 3311, 3282, 3281, 4741, 4742, 4713, 4712
2908, 3311, 3312, 3283, 3282, 4742, 4743, 4714, 4713
2909, 3312, 3313, 3284, 3283, 4743, 4744, 4715, 4714
2910, 3313, 3314, 3285, 3284, 4744, 4745, 4716, 4715
2911, 3314, 3315, 3286, 3285, 4745, 4746, 4717, 4716
2912, 3315, 3316, 3287, 3286, 4746, 4747, 4718, 4717
2913, 3316, 3317, 3288, 3287, 4747, 4748, 4719, 4718
2914, 3317, 3318, 3289, 3288, 4748, 4749, 4720, 4719
2915, 3318, 3319, 3290, 3289, 4749, 4750, 4721, 4720
2916, 3319, 3320, 3291, 3290, 4750, 4751, 4722, 4721
2917, 3320, 3321, 3292, 3291, 4751, 4752, 4723, 4722
2918, 3321, 3322, 3293, 3292, 4752, 4753, 4724, 4723
2919, 3322, 3323, 3294, 3293, 4753, 4754, 4725, 4724
2920, 3323, 3324, 3295, 3294, 4754, 4755, 4726, 4725
2921, 3324, 3325, 3296, 3295, 4755, 4756, 4727, 4726
2922, 3325, 3326, 3297, 3296, 4756, 4757, 4728, 4727
2923, 3326, 3327, 3298, 3297, 4757, 4758, 4729, 4728
2924, 3327, 3328, 3299, 3298, 4758, 4759, 4730, 4729
2925, 3328, 3329, 3300, 3299, 4759, 4760, 4731, 4730
2926, 3329, 2906, 2905, 3300, 4760, 4337, 4336, 4731
2927, 2979, 3330, 3301, 2980, 4410, 4761, 4732, 4411
2928, 3330, 3331, 3302, 3301, 4761, 4762, 4733, 4732
2929, 3331, 3332, 3303, 3302, 4762, 4763, 4734, 4733
2930, 3332, 3333, 3304, 3303, 4763, 4764, 4735, 4734
2931, 3333, 3334, 3305, 3304, 4764, 4765, 4736, 4735
2932, 3334, 3335, 3306, 3305, 4765, 4766, 4737, 4736
2933, 3335, 3336, 3307, 3306, 4766, 4767, 4738, 4737
2934, 3336, 3337, 3308, 3307, 4767, 4768, 4739, 4738
2935, 3337, 3338, 3309, 3308, 4768, 4769, 4740, 4739
2936, 3338, 3339, 3310, 3309, 4769, 4770, 4741, 4740
2937, 3339, 3340, 3311, 3310, 4770, 4771, 4742, 4741
2938, 3340, 3341, 3312, 3311, 4771, 4772, 4743, 4742
2939, 3341, 3342, 3313, 3312, 4772, 4773, 4744, 4743
2940, 3342, 3343, 3314, 3313, 4773, 4774, 4745, 4744
2941, 3343, 3344, 3315, 3314, 4774, 4775, 4746, 4745
2942, 3344, 3345, 3316, 3315, 4775, 4776, 4747, 4746
2943, 3345, 3346, 3317, 3316, 4776, 4777, 4748, 4747
2944, 3346, 3347, 3318, 3317, 4777, 4778, 4749, 4748
2945, 3347, 3348, 3319, 3318, 4778, 4779, 4750, 4749
2946, 3348, 3349, 3320, 3319, 4779, 4780, 4751, 4750
2947, 3349, 3350, 3321, 3320, 4780, 4781, 4752, 4751
2948, 3350, 3351, 3322, 3321, 4781, 4782, 4753, 4752
2949, 3351, 3352, 3323, 3322, 4782, 4783, 4754, 4753
2950, 3352, 3353, 3324, 3323, 4783, 4784, 4755, 4754
2951, 3353, 3354, 3325, 3324, 4784, 4785, 4756, 4755
2952, 3354, 3355, 3326, 3325, 4785, 4786, 4757, 4756
2953, 3355, 3356, 3327, 3326, 4786, 4787, 4758, 4757
2954, 3356, 3357, 3328, 3327, 4787, 4788, 4759, 4758
2955, 3357, 3358, 3329, 3328, 4788, 4789, 4760, 4759
2956, 3358, 2907, 2906, 3329, 4789, 4338, 4337, 4760
2957, 2978, 3359, 3330, 2979, 4409, 4790, 4761, 4410
2958, 3359, 3360, 3331, 3330, 4790, 4791, 4762, 4761
2959, 3360, 3361, 3332, 3331, 4791, 4792, 4763, 4762
2960, 3361, 3362, 3333, 3332, 4792, 4793, 4764, 4763
2961, 3362, 3363, 3334, 3333, 4793, 4794, 4765, 4764
2962, 3363, 3364, 3335, 3334, 4794, 4795, 4766, 4765
2963, 3364, 3365, 3336, 3335, 4795, 4796, 4767, 4766
2964, 3365, 3366, 3337, 3336, 4796, 4797, 4768, 4767
2965, 3366, 3367, 3338, 3337, 4797, 4798, 4769, 4768
2966, 3367, 3368, 3339, 3338, 4798, 4799, 4770, 4769
2967, 3368, 3369, 3340, 3339, 4799, 4800, 4771, 4770
2968, 3369, 3370, 3341, 3340, 4800, 4801, 4772, 4771
2969, 3370, 3371, 3342, 3341, 4801, 4802, 4773, 4772
2970, 3371, 3372, 3343, 3342, 4802, 4803, 4774, 4773
2971, 3372, 3373, 3344, 3343, 4803, 4804, 4775, 4774
2972, 3373, 3374, 3345, 3344, 4804, 4805, 4776, 4775
2973, 3374, 3375, 3346, 3345, 4805, 4806, 4777, 4776
2974, 3375, 3376, 3347, 3346, 4806, 4807, 4778, 4777
2975, 3376, 3377, 3348, 3347, 4807, 4808, 4779, 4778
2976, 3377, 3378, 3349, 3348, 4808, 4809, 4780, 4779
2977, 3378, 3379, 3350, 3349, 4809, 4810, 4781, 4780
2978, 3379, 3380, 3351, 3350, 4810, 4811, 4782, 4781
2979, 3380, 3381, 3352, 3351, 4811, 4812, 4783, 4782
2980, 3381, 3382, 3353, 3352, 4812, 4813, 4784, 4783
2981, 3382, 3383, 3354, 3353, 4813, 4814, 4785, 4784
2982, 3383, 3384, 3355, 3354, 4814, 4815, 4786, 4785
2983, 3384, 3385, 3356, 3355, 4815, 4816, 4787, 4786
2984, 3385, 3386, 3357, 3356, 4816, 4817, 4788, 4787
2985, 3386, 3387, 3358, 3357, 4817, 4818, 4789, 4788
2986, 3387, 2908, 2907, 3358, 4818, 4339, 4338, 4789
2987, 2977, 3388, 3359, 2978, 4408, 4819, 4790, 4409
2988, 3388, 3389, 3360, 3359, 4819, 4820, 4791, 4790
2989, 3389, 3390, 3361, 3360, 4820, 4821, 4792, 4791
2990, 3390, 3391, 3362, 3361, 4821, 4822, 4793, 4792
2991, 3391, 3392, 3363, 3362, 4822, 4823, 4794, 4793
2992, 3392, 3393, 3364, 3363, 4823, 4824, 4795, 4794
2993, 3393, 3394, 3365, 3364, 4824, 4825, 4796, 4795
2994, 3394, 3395, 3366, 3365, 4825, 4826, 4797, 4796
2995, 3395, 3396, 3367, 3366, 4826, 4827, 4798, 4797
2996, 3396, 3397, 3368, 3367, 4827, 4828, 4799, 4798
2997, 3397, 3398, 3369, 3368, 4828, 4829, 4800, 4799
2998, 3398, 3399, 3370, 3369, 4829, 4830, 4801, 4800
2999, 3399, 3400, 3371, 3370, 4830, 4831, 4802, 4801
3000, 3400, 3401, 3372, 3371, 4831, 4832, 4803, 4802
3001, 3401, 3402, 3373, 3372, 4832, 4833, 4804, 4803
3002, 3402, 3403, 3374, 3373, 4833, 4834, 4805, 4804
3003, 3403, 3404, 3375, 3374, 4834, 4835, 4806, 4805
3004, 3404, 3405, 3376, 3375, 4835, 4836, 4807, 4806
3005, 3405, 3406, 3377, 3376, 4836, 4837, 4808, 4807
3006, 3406, 3407, 3378, 3377, 4837, 4838, 4809, 4808
3007, 3407, 3408, 3379, 3378, 4838, 4839, 4810, 4809
3008, 3408, 3409, 3380, 3379, 4839, 4840, 4811, 4810
3009, 3409, 3410, 3381, 3380, 4840, 4841, 4812, 4811
3010, 3410, 3411, 3382, 3381, 4841, 4842, 4813, 4812
3011, 3411, 3412, 3383, 3382, 4842, 4843, 4814, 4813
3012, 3412, 3413, 3384, 3383, 4843, 4844, 4815, 4814
3013, 3413, 3414, 3385, 3384, 4844, 4845, 4816, 4815
3014, 3414, 3415, 3386, 3385, 4845, 4846, 4817, 4816
3015, 3415, 3416, 3387, 3386, 4846, 4847, 4818, 4817
3016, 3416, 2909, 2908, 3387, 4847, 4340, 4339, 4818
3017, 2976, 3417, 3388, 2977, 4407, 4848, 4819, 4408
3018, 3417, 3418, 3389, 3388, 4848, 4849, 4820, 4819
3019, 3418, 3419, 3390, 3389, 4849, 4850, 4821, 4820
3020, 3419, 3420, 3391, 3390, 4850, 4851, 4822, 4821
3021, 3420, 3421, 3392, 3391, 4851, 4852, 4823, 4822
3022, 3421, 3422, 3393, 3392, 4852, 4853, 4824, 4823
3023, 3422, 3423, 3394, 3393, 4853, 4854, 4825, 4824
3024, 3423, 3424, 3395, 3394, 4854, 4855, 4826, 4825
3025, 3424, 3425, 3396, 3395, 4855, 4856, 4827, 4826
3026, 3425, 3426, 3397, 3396, 4856, 4857, 4828, 4827
3027, 3426, 3427, 3398, 3397, 4857, 4858, 4829, 4828
3028, 3427, 3428, 3399, 3398, 4858, 4859, 4830, 4829
3029, 3428, 3429, 3400, 3399, 4859, 4860, 4831, 4830
3030, 3429, 3430, 3401, 3400, 4860, 4861, 4832, 4831
3031, 3430, 3431, 3402, 3401, 4861, 4862, 4833, 4832
3032, 3431, 3432, 3403, 3402, 4862, 4863, 4834, 4833
3033, 3432, 3433, 3404, 3403, 4863, 4864, 4835, 4834
3034, 3433, 3434, 3405, 3404, 4864, 4865, 4836, 4835
3035, 3434, 3435, 3406, 3405, 4865, 4866, 4837, 4836
3036, 3435, 3436, 3407, 3406, 4866, 4867, 4838, 4837
3037, 3436, 3437, 3408, 3407, 4867, 4868, 4839, 4838
3038, 3437, 3438, 3409, 3408, 4868, 4869, 4840, 4839
3039, 3438, 3439, 3410, 3409, 4869, 4870, 4841, 4840
3040, 3439, 3440, 3411, 3410, 4870, 4871, 4842, 4841
3041, 3440, 3441, 3412, 3411, 4871, 4872, 4843, 4842
3042, 3441, 3442, 3413, 3412, 4872, 4873, 4844, 4843
3043, 3442, 3443, 3414, 3413, 4873, 4874, 4845, 4844
3044, 3443, 3444, 3415, 3414, 4874, 4875, 4846, 4845
3045, 3444, 3445, 3416, 3415, 4875, 4876, 4847, 4846
3046, 3445, 2910, 2909, 3416, 4876, 4341, 4340, 4847
3047, 2975, 3446, 3417, 2976, 4406, 4877, 4848, 4407
3048, 3446, 3447, 3418, 3417, 4877, 4878, 4849, 4848
3049, 3447, 3448, 3419, 3418, 4878, 4879, 4850, 4849
3050, 3448, 3449, 3420, 3419, 4879, 4880, 4851, 4850
3051, 3449, 3450, 3421, 3420, 4880, 4881, 4852, 4851
3052, 3450, 3451, 3422, 3421, 4881, 4882, 4853, 4852
3053, 3451, 3452, 3423, 3422, 4882, 4883, 4854, 4853
3054, 3452, 3453, 3424, 3423, 4883, 4884, 4855, 4854
3055, 3453, 3454, 3425, 3424, 4884, 4885, 4856, 4855
3056, 3454, 3455, 3426, 3425, 4885, 4886, 4857, 4856
3057, 3455, 3456, 3427, 3426, 4886, 4887, 4858, 4857
3058, 3456, 3457, 3428, 3427, 4887, 4888, 4859, 4858
3059, 3457, 3458, 3429, 3428, 4888, 4889, 4860, 4859
3060, 3458, 3459, 3430, 3429, 4889, 4890, 4861, 4860
3061, 3459, 3460, 3431, 3430, 4890, 4891, 4862, 4861
3062, 3460, 3461, 3432, 3431, 4891, 4892, 4863, 4862
3063, 3461, 3462, 3433, 3432, 4892, 4893, 4864, 4863
3064, 3462, 3463, 3434, 3433, 4893, 4894, 4865, 4864
3065, 3463, 3464, 3435, 3434, 4894, 4895, 4866, 4865
3066, 3464, 3465, 3436, 3435, 4895, 4896, 4867, 4866
3067, 3465, 3466, 3437, 3436, 4896, 4897, 4868, 4867
3068, 3466, 3467, 3438, 3437, 4897, 4898, 4869, 4868
3069, 3467, 3468, 3439, 3438, 4898, 4899, 4870, 4869
3070, 3468, 3469, 3440, 3439, 4899, 4900, 4871, 4870
3071, 3469, 3470, 3441, 3440, 4900, 4901, 4872, 4871
3072, 3470, 3471, 3442, 3441, 4901, 4902, 4873, 4872
3073, 3471, 3472, 3443, 3442, 4902, 4903, 4874, 4873
3074, 3472, 3473, 3444, 3443, 4903, 4904, 4875, 4874
3075, 3473, 3474, 3445, 3444, 4904, 4905, 4876, 4875
3076, 3474, 2911, 2910, 3445, 4905, 4342, 4341, 4876
3077, 2974, 3475, 3446, 2975, 4405, 4906, 4877, 4406
3078, 3475, 3476, 3447, 3446, 4906, 4907, 4878, 4877
3079, 3476, 3477, 3448, 3447, 4907, 4908, 4879, 4878
3080, 3477, 3478, 3449, 3448, 4908, 4909, 4880, 4879
3081, 3478, 3479, 3450, 3449, 4909, 4910, 4881, 4880
3082, 3479, 3480, 3451, 3450, 4910, 4911, 4882, 4881
3083, 3480, 3481, 3452, 3451, 4911, 4912, 4883, 4882
3084, 3481, 3482, 3453, 3452, 4912, 4913, 4884, 4883
3085, 3482, 3483, 3454, 3453, 4913, 4914, 4885, 4884
3086, 3483, 3484, 3455, 3454, 4914, 4915, 4886, 4885
3087, 3484, 3485, 3456, 3455, 4915, 4916, 4887, 4886
3088, 3485, 3486, 3457, 3456, 4916, 4917, 4888, 4887
3089, 3486, 3487, 3458, 3457, 4917, 4918, 4889, 4888
3090, 3487, 3488, 3459, 3458, 4918, 4919, 4890, 4889
3091, 3488, 3489, 3460, 3459, 4919, 4920, 4891, 4890
3092, 3489, 3490, 3461, 3460, 4920, 4921, 4892, 4891
3093, 3490, 3491, 3462, 3461, 4921, 4922, 4893, 4892
3094, 3491, 3492, 3463, 3462, 4922, 4923, 4894, 4893
3095, 3492, 3493, 3464, 3463, 4923, 4924, 4895, 4894
3096, 3493, 3494, 3465, 3464, 4924, 4925, 4896, 4895
3097, 3494, 3495, 3466, 3465, 4925, 4926, 4897, 4896
3098, 3495, 3496, 3467, 3466, 4926, 4927, 4898, 4897
3099, 3496, 3497, 3468, 3467, 4927, 4928, 4899, 4898
3100, 3497, 3498, 3469, 3468, 4928, 4929, 4900, 4899
3101, 3498, 3499, 3470, 3469, 4929, 4930, 4901, 4900
3102, 3499, 3500, 3471, 3470, 4930, 4931, 4902, 4901
3103, 3500, 3501, 3472, 3471, 4931, 4932, 4903, 4902
3104, 3501, 3502, 3473, 3472, 4932, 4933, 4904, 4903
3105, 3502, 3503, 3474, 3473, 4933, 4934, 4905, 4904
3106, 3503, 2912, 2911, 3474, 4934, 4343, 4342, 4905
3107, 2973, 3504, 3475, 2974, 4404, 4935, 4906, 4405
3108, 3504, 3505, 3476, 3475, 4935, 4936, 4907, 4906
3109, 3505, 3506, 3477, 3476, 4936, 4937, 4908, 4907
3110, 3506, 3507, 3478, 3477, 4937, 4938, 4909, 4908
3111, 3507, 3508, 3479, 3478, 4938, 4939, 4910, 4909
3112, 3508, 3509, 3480, 3479, 4939, 4940, 4911, 4910
3113, 3509, 3510, 3481, 3480, 4940, 4941, 4912, 4911
3114, 3510, 3511, 3482, 3481, 4941, 4942, 4913, 4912
3115, 3511, 3512, 3483, 3482, 4942, 4943, 4914, 4913
3116, 3512, 3513, 3484, 3483, 4943, 4944, 4915, 4914
3117, 3513, 3514, 3485, 3484, 4944, 4945, 4916, 4915
3118, 3514, 3515, 3486, 3485, 4945, 4946, 4917, 4916
3119, 3515, 3516, 3487, 3486, 4946, 4947, 4918, 4917
3120, 3516, 3517, 3488, 3487, 4947, 4948, 4919, 4918
3121, 3517, 3518, 3489, 3488, 4948, 4949, 4920, 4919
3122, 3518, 3519, 3490, 3489, 4949, 4950, 4921, 4920
3123, 3519, 3520, 3491, 3490, 4950, 4951, 4922, 4921
3124, 3520, 3521, 3492, 3491, 4951, 4952, 4923, 4922
3125, 3521, 3522, 3493, 3492, 4952, 4953, 4924, 4923
3126, 3522, 3523, 3494, 3493, 4953, 4954, 4925, 4924
3127, 3523, 3524, 3495, 3494, 4954, 4955, 4926, 4925
3128, 3524, 3525, 3496, 3495, 4955, 4956, 4927, 4926
3129, 3525, 3526, 3497, 3496, 4956, 4957, 4928, 4927
3130, 3526, 3527, 3498, 3497, 4957, 4958, 4929, 4928
3131, 3527, 3528, 3499, 3498, 4958, 4959, 4930, 4929
3132, 3528, 3529, 3500, 3499, 4959, 4960, 4931, 4930
3133, 3529, 3530, 3501, 3500, 4960, 4961, 4932, 4931
3134, 3530, 3531, 3502, 3501, 4961, 4962, 4933, 4932
3135, 3531, 3532, 3503, 3502, 4962, 4963, 4934, 4933
3136, 3532, 2913, 2912, 3503, 4963, 4344, 4343, 4934
3137, 2972, 3533, 3504, 2973, 4403, 4964, 4935, 4404
3138, 3533, 3534, 3505, 3504, 4964, 4965, 4936, 4935
3139, 3534, 3535, 3506, 3505, 4965, 4966, 4937, 4936
3140, 3535, 3536, 3507, 3506, 4966, 4967, 4938, 4937
3141, 3536, 3537, 3508, 3507, 4967, 4968, 4939, 4938
3142, 3537, 3538, 3509, 3508, 4968, 4969, 4940, 4939
3143, 3538, 3539, 3510, 3509, 4969, 4970, 4941, 4940
3144, 3539, 3540, 3511, 3510, 4970, 4971, 4942, 4941
3145, 3540, 3541, 3512, 3511, 4971, 4972, 4943, 4942
3146, 3541, 3542, 3513, 3512, 4972, 4973, 4944, 4943
3147, 3542, 3543, 3514, 3513, 4973, 4974, 4945, 4944
3148, 3543, 3544, 3515, 3514, 4974, 4975, 4946, 4945
3149, 3544, 3545, 3516, 3515, 4975, 4976, 4947, 4946
3150, 3545, 3546, 3517, 3516, 4976, 4977, 4948, 4947
3151, 3546, 3547, 3518, 3517, 4977, 4978, 4949, 4948
3152, 3547, 3548, 3519, 3518, 4978, 4979, 4950, 4949
3153, 3548, 3549, 3520, 3519, 4979, 4980, 4951, 4950
3154, 3549, 3550, 3521, 3520, 4980, 4981, 4952, 4951
3155, 3550, 3551, 3522, 3521, 4981, 4982, 4953, 4952
3156, 3551, 3552, 3523, 3522, 4982, 4983, 4954, 4953
3157, 3552, 3553, 3524, 3523, 4983, 4984, 4955, 4954
3158, 3553, 3554, 3525, 3524, 4984, 4985, 4956, 4955
3159, 3554, 3555, 3526, 3525, 4985, 4986, 4957, 4956
3160, 3555, 3556, 3527, 3526, 4986, 4987, 4958, 4957
3161, 3556, 3557, 3528, 3527, 4987, 4988, 4959, 4958
3162, 3557, 3558, 3529, 3528, 4988, 4989, 4960, 4959
3163, 3558, 3559, 3530, 3529, 4989, 4990, 4961, 4960
3164, 3559, 3560, 3531, 3530, 4990, 4991, 4962, 4961
3165, 3560, 3561, 3532, 3531, 4991, 4992, 4963, 4962
3166, 3561, 2914, 2913, 3532, 4992, 4345, 4344, 4963
3167, 2971, 3562, 3533, 2972, 4402, 4993, 4964, 4403
3168, 3562, 3563, 3534, 3533, 4993, 4994, 4965, 4964
3169, 3563, 3564, 3535, 3534, 4994, 4995, 4966, 4965
3170, 3564, 3565, 3536, 3535, 4995, 4996, 4967, 4966
3171, 3565, 3566, 3537, 3536, 4996, 4997, 4968, 4967
3172, 3566, 3567, 3538, 3537, 4997, 4998, 4969, 4968
3173, 3567, 3568, 3539, 3538, 4998, 4999, 4970, 4969
3174, 3568, 3569, 3540, 3539, 4999, 5000, 4971, 4970
3175, 3569, 3570, 3541, 3540, 5000, 5001, 4972, 4971
3176, 3570, 3571, 3542, 3541, 5001, 5002, 4973, 4972
3177, 3571, 3572, 3543, 3542, 5002, 5003, 4974, 4973
3178, 3572, 3573, 3544, 3543, 5003, 5004, 4975, 4974
3179, 3573, 3574, 3545, 3544, 5004, 5005, 4976, 4975
3180, 3574, 3575, 3546, 3545, 5005, 5006, 4977, 4976
3181, 3575, 3576, 3547, 3546, 5006, 5007, 4978, 4977
3182, 3576, 3577, 3548, 3547, 5007, 5008, 4979, 4978
3183, 3577, 3578, 3549, 3548, 5008, 5009, 4980, 4979
3184, 3578, 3579, 3550, 3549, 5009, 5010, 4981, 4980
3185, 3579, 3580, 3551, 3550, 5010, 5011, 4982, 4981
3186, 3580, 3581, 3552, 3551, 5011, 5012, 4983, 4982
3187, 3581, 3582, 3553, 3552, 5012, 5013, 4984, 4983
3188, 3582, 3583, 3554, 3553, 5013, 5014, 4985, 4984
3189, 3583, 3584, 3555, 3554, 5014, 5015, 4986, 4985
3190, 3584, 3585, 3556, 3555, 5015, 5016, 4987, 4986
3191, 3585, 3586, 3557, 3556, 5016, 5017, 4988, 4987
3192, 3586, 3587, 3558, 3557, 5017, 5018, 4989, 4988
3193, 3587, 3588, 3559, 3558, 5018, 5019, 4990, 4989
3194, 3588, 3589, 3560, 3559, 5019, 5020, 4991, 4990
3195, 3589, 3590, 3561, 3560, 5020, 5021, 4992, 4991
3196, 3590, 2915, 2914, 3561, 5021, 4346, 4345, 4992
3197, 2970, 3591, 3562, 2971, 4401, 5022, 4993, 4402
3198, 3591, 3592, 3563, 3562, 5022, 5023, 4994, 4993
3199, 3592, 3593, 3564, 3563, 5023, 5024, 4995, 4994
3200, 3593, 3594, 3565, 3564, 5024, 5025, 4996, 4995
3201, 3594, 3595, 3566, 3565, 5025, 5026, 4997, 4996
3202, 3595, 3596, 3567, 3566, 5026, 5027, 4998, 4997
3203, 3596, 3597, 3568, 3567, 5027, 5028, 4999, 4998
3204, 3597, 3598, 3569, 3568, 5028, 5029, 5000, 4999
3205, 3598, 3599, 3570, 3569, 5029, 5030, 5001, 5000
3206, 3599, 3600, 3571, 3570, 5030, 5031, 5002, 5001
3207, 3600, 3601, 3572, 3571, 5031, 5032, 5003, 5002
3208, 3601, 3602, 3573, 3572, 5032, 5033, 5004, 5003
3209, 3602, 3603, 3574, 3573, 5033, 5034, 5005, 5004
3210, 3603, 3604, 3575, 3574, 5034, 5035, 5006, 5005
3211, 3604, 3605, 3576, 3575, 5035, 5036, 5007, 5006
3212, 3605, 3606, 3577, 3576, 5036, 5037, 5008, 5007
3213, 3606, 3607, 3578, 3577, 5037, 5038, 5009, 5008
3214, 3607, 3608, 3579, 3578, 5038, 5039, 5010, 5009
3215, 3608, 3609, 3580, 3579, 5039, 5040, 5011, 5010
3216, 3609, 3610, 3581, 3580, 5040, 5041, 5012, 5011
3217, 3610, 3611, 3582, 3581, 5041, 5042, 5013, 5012
3218, 3611, 3612, 3583, 3582, 5042, 5043, 5014, 5013
3219, 3612, 3613, 3584, 3583, 5043, 5044, 5015, 5014
3220, 3613, 3614, 3585, 3584, 5044, 5045, 5016, 5015
3221, 3614, 3615, 3586, 3585, 5045, 5046, 5017, 5016
3222, 3615, 3616, 3587, 3586, 5046, 5047, 5018, 5017
3223, 3616, 3617, 3588, 3587, 5047, 5048, 5019, 5018
3224, 3617, 3618, 3589, 3588, 5048, 5049, 5020, 5019
3225, 3618, 3619, 3590, 3589, 5049, 5050, 5021, 5020
3226, 3619, 2916, 2915, 3590, 5050, 4347, 4346, 5021
3227, 2969, 3620, 3591, 2970, 4400, 5051, 5022, 4401
3228, 3620, 3621, 3592, 3591, 5051, 5052, 5023, 5022
3229, 3621, 3622, 3593, 3592, 5052, 5053, 5024, 5023
3230, 3622, 3623, 3594, 3593, 5053, 5054, 5025, 5024
3231, 3623, 3624, 3595, 3594, 5054, 5055, 5026, 5025
3232, 3624, 3625, 3596, 3595, 5055, 5056, 5027, 5026
3233, 3625, 3626, 3597, 3596, 5056, 5057, 5028, 5027
3234, 3626, 3627, 3598, 3597, 5057, 5058, 5029, 5028
3235, 3627, 3628, 3599, 3598, 5058, 5059, 5030, 5029
3236, 3628, 3629, 3600, 3599, 5059, 5060, 5031, 5030
3237, 3629, 3630, 3601, 3600, 5060, 5061, 5032, 5031
3238, 3630, 3631, 3602, 3601, 5061, 5062, 5033, 5032
3239, 3631, 3632, 3603, 3602, 5062, 5063, 5034, 5033
3240, 3632, 3633, 3604, 3603, 5063, 5064, 5035, 5034
3241, 3633, 3634, 3605, 3604, 5064, 5065, 5036, 5035
3242, 3634, 3635, 3606, 3605, 5065, 5066, 5037, 5036
3243, 3635, 3636, 3607, 3606, 5066, 5067, 5038, 5037
3244, 3636, 3637, 3608, 3607, 5067, 5068, 5039, 5038
3245, 3637, 3638, 3609, 3608, 5068, 5069, 5040, 5039
3246, 3638, 3639, 3610, 3609, 5069, 5070, 5041, 5040
3247, 3639, 3640, 3611, 3610, 5070, 5071, 5042, 5041
3248, 3640, 3641, 3612, 3611, 5071, 5072, 5043, 5042
3249, 3641, 3642, 3613, 3612, 5072, 5073, 5044, 5043
3250, 3642, 3643, 3614, 3613, 5073, 5074, 5045, 5044
3251, 3643, 3644, 3615, 3614, 5074, 5075, 5046, 5045
3252, 3644, 3645, 3616, 3615, 5075, 5076, 5047, 5046
3253, 3645, 3646, 3617, 3616, 5076, 5077, 5048, 5047
3254, 3646, 3647, 3618, 3617, 5077, 5078, 5049, 5048
3255, 3647, 3648, 3619, 3618, 5078, 5079, 5050, 5049
3256, 3648, 2917, 2916, 3619, 5079, 4348, 4347, 5050
3257, 2968, 3649, 3620, 2969, 4399, 5080, 5051, 4400
3258, 3649, 3650, 3621, 3620, 5080, 5081, 5052, 5051
3259, 3650, 3651, 3622, 3621, 5081, 5082, 5053, 5052
3260, 3651, 3652, 3623, 3622, 5082, 5083, 5054, 5053
3261, 3652, 3653, 3624, 3623, 5083, 5084, 5055, 5054
3262, 3653, 3654, 3625, 3624, 5084, 5085, 5056, 5055
3263, 3654, 3655, 3626, 3625, 5085, 5086, 5057, 5056
3264, 3655, 3656, 3627, 3626, 5086, 5087, 5058, 5057
3265, 3656, 3657, 3628, 3627, 5087, 5088, 5059, 5058
3266, 3657, 3658, 3629, 3628, 5088, 5089, 5060, 5059
3267, 3658, 3659, 3630, 3629, 5089, 5090, 5061, 5060
3268, 3659, 3660, 3631, 3630, 5090, 5091, 5062, 5061
3269, 3660, 3661, 3632, 3631, 5091, 5092, 5063, 5062
3270, 3661, 3662, 3633, 3632, 5092, 5093, 5064, 5063
3271, 3662, 3663, 3634, 3633, 5093, 5094, 5065, 5064
3272, 3663, 3664, 3635, 3634, 5094, 5095, 5066, 5065
3273, 3664, 3665, 3636, 3635, 5095, 5096, 5067, 5066
3274, 3665, 3666, 3637, 3636, 5096, 5097, 5068, 5067
3275, 3666, 3667, 3638, 3637, 5097, 5098, 5069, 5068
3276, 3667, 3668, 3639, 3638, 5098, 5099, 5070, 5069
3277, 3668, 3669, 3640, 3639, 5099, 5100, 5071, 5070
3278, 3669, 3670, 3641, 3640, 5100, 5101, 5072, 5071
3279, 3670, 3671, 3642, 3641, 5101, 5102, 5073, 5072
3280, 3671, 3672, 3643, 3642, 5102, 5103, 5074, 5073
3281, 3672, 3673, 3644, 3643, 5103, 5104, 5075, 5074
3282, 3673, 3674, 3645, 3644, 5104, 5105, 5076, 5075
3283, 3674, 3675, 3646, 3645, 5105, 5106, 5077, 5076
3284, 3675, 3676, 3647, 3646, 5106, 5107, 5078, 5077
3285, 3676, 3677, 3648, 3647, 5107, 5108, 5079, 5078
3286, 3677, 2918, 2917, 3648, 5108, 4349, 4348, 5079
3287, 2967, 3678, 3649, 2968, 4398, 5109, 5080, 4399
3288, 3678, 3679, 3650, 3649, 5109, 5110, 5081, 5080
3289, 3679, 3680, 3651, 3650, 5110, 5111, 5082, 5081
3290, 3680, 3681, 3652, 3651, 5111, 5112, 5083, 5082
3291, 3681, 3682, 3653, 3652, 5112, 5113, 5084, 5083
3292, 3682, 3683, 3654, 3653, 5113, 5114, 5085, 5084
3293, 3683, 3684, 3655, 3654, 5114, 5115, 5086, 5085
3294, 3684, 3685, 3656, 3655, 5115, 5116, 5087, 5086
3295, 3685, 3686, 3657, 3656, 5116, 5117, 5088, 5087
3296, 3686, 3687, 3658, 3657, 5117, 5118, 5089, 5088
3297, 3687, 3688, 3659, 3658, 5118, 5119, 5090, 5089
3298, 3688, 3689, 3660, 3659, 5119, 5120, 5091, 5090
3299, 3689, 3690, 3661, 3660, 5120, 5121, 5092, 5091
3300, 3690, 3691, 3662, 3661, 5121, 5122, 5093, 5092
3301, 3691, 3692, 3663, 3662, 5122, 5123, 5094, 5093
3302, 3692, 3693, 3664, 3663, 5123, 5124, 5095, 5094
3303, 3693, 3694, 3665, 3664, 5124, 5125, 5096, 5095
3304, 3694, 3695, 3666, 3665, 5125, 5126, 5097, 5096
3305, 3695, 3696, 3667, 3666, 5126, 5127, 5098, 5097
3306, 3696, 3697, 3668, 3667, 5127, 5128, 5099, 5098
3307, 3697, 3698, 3669, 3668, 5128, 5129, 5100, 5099
3308, 3698, 3699, 3670, 3669, 5129, 5130, 5101, 5100
3309, 3699, 3700, 3671, 3670, 5130, 5131, 5102, 5101
3310, 3700, 3701, 3672, 3671, 5131, 5132, 5103, 5102
3311, 3701, 3702, 3673, 3672, 5132, 5133, 5104, 5103
3312, 3702, 3703, 3674, 3673, 5133, 5134, 5105, 5104
3313, 3703, 3704, 3675, 3674, 5134, 5135, 5106, 5105
3314, 3704, 3705, 3676, 3675, 5135, 5136, 5107, 5106
3315, 3705, 3706, 3677, 3676, 5136, 5137, 5108, 5107
3316, 3706, 2919, 2918, 3677, 5137, 4350, 4349, 5108
3317, 2966, 3707, 3678, 2967, 4397, 5138, 5109, 4398
3318, 3707, 3708, 3679, 3678, 5138, 5139, 5110, 5109
3319, 3708, 3709, 3680, 3679, 5139, 5140, 5111, 5110
3320, 3709, 3710, 3681, 3680, 5140, 5141, 5112, 5111
3321, 3710, 3711, 3682, 3681, 5141, 5142, 5113, 5112
3322, 3711, 3712, 3683, 3682, 5142, 5143, 5114, 5113
3323, 3712, 3713, 3684, 3683, 5143, 5144, 5115, 5114
3324, 3713, 3714, 3685, 3684, 5144, 5145, 5116, 5115
3325, 3714, 3715, 3686, 3685, 5145, 5146, 5117, 5116
3326, 3715, 3716, 3687, 3686, 5146, 5147, 5118, 5117
3327, 3716, 3717, 3688, 3687, 5147, 5148, 5119, 5118
3328, 3717, 3718, 3689, 3688, 5148, 5149, 5120, 5119
3329, 3718, 3719, 3690, 3689, 5149, 5150, 5121, 5120
3330, 3719, 3720, 3691, 3690, 5150, 5151, 5122, 5121
3331, 3720, 3721, 3692, 3691, 5151, 5152, 5123, 5122
3332, 3721, 3722, 3693, 3692, 5152, 5153, 5124, 5123
3333, 3722, 3723, 3694, 3693, 5153, 5154, 5125, 5124
3334, 3723, 3724, 3695, 3694, 5154, 5155, 5126, 5125
3335, 3724, 3725, 3696, 3695, 5155, 5156, 5127, 5126
3336, 3725, 3726, 3697, 3696, 5156, 5157, 5128, 5127
3337, 3726, 3727, 3698, 3697, 5157, 5158, 5129, 5128
3338, 3727, 3728, 3699, 3698, 5158, 5159, 5130, 5129
3339, 3728, 3729, 3700, 3699, 5159, 5160, 5131, 5130
3340, 3729, 3730, 3701, 3700, 5160, 5161, 5132, 5131
3341, 3730, 3731, 3702, 3701, 5161, 5162, 5133, 5132
3342, 3731, 3732, 3703, 3702, 5162, 5163, 5134, 5133
3343, 3732, 3733, 3704, 3703, 5163, 5164, 5135, 5134
3344, 3733, 3734, 3705, 3704, 5164, 5165, 5136, 5135
3345, 3734, 3735, 3706, 3705, 5165, 5166, 5137, 5136
3346, 3735, 2920, 2919, 3706, 5166, 4351, 4350, 5137
3347, 2965, 3736, 3707, 2966, 4396, 5167, 5138, 4397
3348, 3736, 3737, 3708, 3707, 5167, 5168, 5139, 5138
3349, 3737, 3738, 3709, 3708, 5168, 5169, 5140, 5139
3350, 3738, 3739, 3710, 3709, 5169, 5170, 5141, 5140
3351, 3739, 3740, 3711, 3710, 5170, 5171, 5142, 5141
3352, 3740, 3741, 3712, 3711, 5171, 5172, 5143, 5142
3353, 3741, 3742, 3713, 3712, 5172, 5173, 5144, 5143
3354, 3742, 3743, 3714, 3713, 5173, 5174, 5145, 5144
3355, 3743, 3744, 3715, 3714, 5174, 5175, 5146, 5145
3356, 3744, 3745, 3716, 3715, 5175, 5176, 5147, 5146
3357, 3745, 3746, 3717, 3716, 5176, 5177, 5148, 5147
3358, 3746, 3747, 3718, 3717, 5177, 5178, 5149, 5148
3359, 3747, 3748, 3719, 3718, 5178, 5179, 5150, 5149
3360, 3748, 3749, 3720, 3719, 5179, 5180, 5151, 5150
3361, 3749, 3750, 3721, 3720, 5180, 5181, 5152, 5151
3362, 3750, 3751, 3722, 3721, 5181, 5182, 5153, 5152
3363, 3751, 3752, 3723, 3722, 5182, 5183, 5154, 5153
3364, 3752, 3753, 3724, 3723, 5183, 5184, 5155, 5154
3365, 3753, 3754, 3725, 3724, 5184, 5185, 5156, 5155
3366, 3754, 3755, 3726, 3725, 5185, 5186, 5157, 5156
3367, 3755, 3756, 3727, 3726, 5186, 5187, 5158, 5157
3368, 3756, 3757, 3728, 3727, 5187, 5188, 5159, 5158
3369, 3757, 3758, 3729, 3728, 5188, 5189, 5160, 5159
3370, 3758, 3759, 3730, 3729, 5189, 5190, 5161, 5160
3371, 3759, 3760, 3731, 3730, 5190, 5191, 5162, 5161
3372, 3760, 3761, 3732, 3731, 5191, 5192, 5163, 5162
3373, 3761, 3762, 3733, 3732, 5192, 5193, 5164, 5163
3374, 3762, 3763, 3734, 3733, 5193, 5194, 5165, 5164
3375, 3763, 3764, 3735, 3734, 5194, 5195, 5166, 5165
3376, 3764, 2921, 2920, 3735, 5195, 4352, 4351, 5166
3377, 2964, 3765, 3736, 2965, 4395, 5196, 5167, 4396
3378, 3765, 3766, 3737, 3736, 5196, 5197, 5168, 5167
3379, 3766, 3767, 3738, 3737, 5197, 5198, 5169, 5168
3380, 3767, 3768, 3739, 3738, 5198, 5199, 5170, 5169
3381, 3768, 3769, 3740, 3739, 5199, 5200, 5171, 5170
3382, 3769, 3770, 3741, 3740, 5200, 5201, 5172, 5171
3383, 3770, 3771, 3742, 3741, 5201, 5202, 5173, 5172
3384, 3771, 3772, 3743, 3742, 5202, 5203, 5174, 5173
3385, 3772, 3773, 3744, 3743, 5203, 5204, 5175, 5174
3386, 3773, 3774, 3745, 3744, 5204, 5205, 5176, 5175
3387, 3774, 3775, 3746, 3745, 5205, 5206, 5177, 5176
3388, 3775, 3776, 3747, 3746, 5206, 5207, 5178, 5177
3389, 3776, 3777, 3748, 3747, 5207, 5208, 5179, 5178
3390, 3777, 3778, 3749, 3748, 5208, 5209, 5180, 5179
3391, 3778, 3779, 3750, 3749, 5209, 5210, 5181, 5180
3392, 3779, 3780, 3751, 3750, 5210, 5211, 5182, 5181
3393, 3780, 3781, 3752, 3751, 5211, 5212, 5183, 5182
3394, 3781, 3782, 3753, 3752, 5212, 5213, 5184, 5183
3395, 3782, 3783, 3754, 3753, 5213, 5214, 5185, 5184
3396, 3783, 3784, 3755, 3754, 5214, 5215, 5186, 5185
3397, 3784, 3785, 3756, 3755, 5215, 5216, 5187, 5186
3398, 3785, 3786, 3757, 3756, 5216, 5217, 5188, 5187
3399, 3786, 3787, 3758, 3757, 5217, 5218, 5189, 5188
3400, 3787, 3788, 3759, 3758, 5218, 5219, 5190, 5189
3401, 3788, 3789, 3760, 3759, 5219, 5220, 5191, 5190
3402, 3789, 3790, 3761, 3760, 5220, 5221, 5192, 5191
3403, 3790, 3791, 3762, 3761, 5221, 5222, 5193, 5192
3404, 3791, 3792, 3763, 3762, 5222, 5223, 5194, 5193
3405, 3792, 3793, 3764, 3763, 5223, 5224, 5195, 5194
3406, 3793, 2922, 2921, 3764, 5224, 4353, 4352, 5195
3407, 2963, 3794, 3765, 2964, 4394, 5225, 5196, 4395
3408, 3794, 3795, 3766, 3765, 5225, 5226, 5197, 5196
3409, 3795, 3796, 3767, 3766, 5226, 5227, 5198, 5197
3410, 3796, 3797, 3768, 3767, 5227, 5228, 5199, 5198
3411, 3797, 3798, 3769, 3768, 5228, 5229, 5200, 5199
3412, 3798, 3799, 3770, 3769, 5229, 5230, 5201, 5200
3413, 3799, 3800, 3771, 3770, 5230, 5231, 5202, 5201
3414, 3800, 3801, 3772, 3771, 5231, 5232, 5203, 5202
3415, 3801, 3802, 3773, 3772, 5232, 5233, 5204, 5203
3416, 3802, 3803, 3774, 3773, 5233, 5234, 5205, 5204
3417, 3803, 3804, 3775, 3774, 5234, 5235, 5206, 5205
3418, 3804, 3805, 3776, 3775, 5235, 5236, 5207, 5206
3419, 3805, 3806, 3777, 3776, 5236, 5237, 5208, 5207
3420, 3806, 3807, 3778, 3777, 5237, 5238, 5209, 5208
3421, 3807, 3808, 3779, 3778, 5238, 5239, 5210, 5209
3422, 3808, 3809, 3780, 3779, 5239, 5240, 5211, 5210
3423, 3809, 3810, 3781, 3780, 5240, 5241, 5212, 5211
3424, 3810, 3811, 3782, 3781, 5241, 5242, 5213, 5212
3425, 3811, 3812, 3783, 3782, 5242, 5243, 5214, 5213
3426, 3812, 3813, 3784, 3783, 5243, 5244, 5215, 5214
3427, 3813, 3814, 3785, 3784, 5244, 5245, 5216, 5215
3428, 3814, 3815, 3786, 3785, 5245, 5246, 5217, 5216
3429, 3815, 3816, 3787, 3786, 5246, 5247, 5218, 5217
3430, 3816, 3817, 3788, 3787, 5247, 5248, 5219, 5218
3431, 3817, 3818, 3789, 3788, 5248, 5249, 5220, 5219
3432, 3818, 3819, 3790, 3789, 5249, 5250, 5221, 5220
3433, 3819, 3820, 3791, 3790, 5250, 5251, 5222, 5221
3434, 3820, 3821, 3792, 3791, 5251, 5252, 5223, 5222
3435, 3821, 3822, 3793, 3792, 5252, 5253, 5224, 5223
3436, 3822, 2923, 2922, 3793, 5253, 4354, 4353, 5224
3437, 2962, 3823, 3794, 2963, 4393, 5254, 5225, 4394
3438, 3823, 3824, 3795, 3794, 5254, 5255, 5226, 5225
3439, 3824, 3825, 3796, 3795, 5255, 5256, 5227, 5226
3440, 3825, 3826, 3797, 3796, 5256, 5257, 5228, 5227
3441, 3826, 3827, 3798, 3797, 5257, 5258, 5229, 5228
3442, 3827, 3828, 3799, 3798, 5258, 5259, 5230, 5229
3443, 3828, 3829, 3800, 3799, 5259, 5260, 5231, 5230
3444, 3829, 3830, 3801, 3800, 5260, 5261, 5232, 5231
3445, 3830, 3831, 3802, 3801, 5261, 5262, 5233, 5232
3446, 3831, 3832, 3803, 3802, 5262, 5263, 5234, 5233
3447, 3832, 3833, 3804, 3803, 5263, 5264, 5235, 5234
3448, 3833, 3834, 3805, 3804, 5264, 5265, 5236, 5235
3449, 3834, 3835, 3806, 3805, 5265, 5266, 5237, 5236
3450, 3835, 3836, 3807, 3806, 5266, 5267, 5238, 5237
3451, 3836, 3837, 3808, 3807, 5267, 5268, 5239, 5238
3452, 3837, 3838, 3809, 3808, 5268, 5269, 5240, 5239
3453, 3838, 3839, 3810, 3809, 5269, 5270, 5241, 5240
3454, 3839, 3840, 3811, 3810, 5270, 5271, 5242, 5241
3455, 3840, 3841, 3812, 3811, 5271, 5272, 5243, 5242
3456, 3841, 3842, 3813, 3812, 5272, 5273, 5244, 5243
3457, 3842, 3843, 3814, 3813, 5273, 5274, 5245, 5244
3458, 3843, 3844, 3815, 3814, 5274, 5275, 5246, 5245
3459, 3844, 3845, 3816, 3815, 5275, 5276, 5247, 5246
3460, 3845, 3846, 3817, 3816, 5276, 5277, 5248, 5247
3461, 3846, 3847, 3818, 3817, 5277, 5278, 5249, 5248
3462, 3847, 3848, 3819, 3818, 5278, 5279, 5250, 5249
3463, 3848, 3849, 3820, 3819, 5279, 5280, 5251, 5250
3464, 3849, 3850, 3821, 3820, 5280, 5281, 5252, 5251
3465, 3850, 3851, 3822, 3821, 5281, 5282, 5253, 5252
3466, 3851, 2924, 2923, 3822, 5282, 4355, 4354, 5253
3467, 2961, 3852, 3823, 2962, 4392, 5283, 5254, 4393
3468, 3852, 3853, 3824, 3823, 5283, 5284, 5255, 5254
3469, 3853, 3854, 3825, 3824, 5284, 5285, 5256, 5255
3470, 3854, 3855, 3826, 3825, 5285, 5286, 5257, 5256
3471, 3855, 3856, 3827, 3826, 5286, 5287, 5258, 5257
3472, 3856, 3857, 3828, 3827, 5287, 5288, 5259, 5258
3473, 3857, 3858, 3829, 3828, 5288, 5289, 5260, 5259
3474, 3858, 3859, 3830, 3829, 5289, 5290, 5261, 5260
3475, 3859, 3860, 3831, 3830, 5290, 5291, 5262, 5261
3476, 3860, 3861, 3832, 3831, 5291, 5292, 5263, 5262
3477, 3861, 3862, 3833, 3832, 5292, 5293, 5264, 5263
3478, 3862, 3863, 3834, 3833, 5293, 5294, 5265, 5264
3479, 3863, 3864, 3835, 3834, 5294, 5295, 5266, 5265
3480, 3864, 3865, 3836, 3835, 5295, 5296, 5267, 5266
3481, 3865, 3866, 3837, 3836, 5296, 5297, 5268, 5267
3482, 3866, 3867, 3838, 3837, 5297, 5298, 5269, 5268
3483, 3867, 3868, 3839, 3838, 5298, 5299, 5270, 5269
3484, 3868, 3869, 3840, 3839, 5299, 5300, 5271, 5270
3485, 3869, 3870, 3841, 3840, 5300, 5301, 5272, 5271
3486, 3870, 3871, 3842, 3841, 5301, 5302, 5273, 5272
3487, 3871, 3872, 3843, 3842, 5302, 5303, 5274, 5273
3488, 3872, 3873, 3844, 3843, 5303, 5304, 5275, 5274
3489, 3873, 3874, 3845, 3844, 5304, 5305, 5276, 5275
3490, 3874, 3875, 3846, 3845, 5305, 5306, 5277, 5276
3491, 3875, 3876, 3847, 3846, 5306, 5307, 5278, 5277
3492, 3876, 3877, 3848, 3847, 5307, 5308, 5279, 5278
3493, 3877, 3878, 3849, 3848, 5308, 5309, 5280, 5279
3494, 3878, 3879, 3850, 3849, 5309, 5310, 5281, 5280
3495, 3879, 3880, 3851, 3850, 5310, 5311, 5282, 5281
3496, 3880, 2925, 2924, 3851, 5311, 4356, 4355, 5282
3497, 2960, 3881, 3852, 2961, 4391, 5312, 5283, 4392
3498, 3881, 3882, 3853, 3852, 5312, 5313, 5284, 5283
3499, 3882, 3883, 3854, 3853, 5313, 5314, 5285, 5284
3500, 3883, 3884, 3855, 3854, 5314, 5315, 5286, 5285
3501, 3884, 3885, 3856, 3855, 5315, 5316, 5287, 5286
3502, 3885, 3886, 3857, 3856, 5316, 5317, 5288, 5287
3503, 3886, 3887, 3858, 3857, 5317, 5318, 5289, 5288
3504, 3887, 3888, 3859, 3858, 5318, 5319, 5290, 5289
3505, 3888, 3889, 3860, 3859, 5319, 5320, 5291, 5290
3506, 3889, 3890, 3861, 3860, 5320, 5321, 5292, 5291
3507, 3890, 3891, 3862, 3861, 5321, 5322, 5293, 5292
3508, 3891, 3892, 3863, 3862, 5322, 5323, 5294, 5293
3509, 3892, 3893, 3864, 3863, 5323, 5324, 5295, 5294
3510, 3893, 3894, 3865, 3864, 5324, 5325, 5296, 5295
3511, 3894, 3895, 3866, 3865, 5325, 5326, 5297, 5296
3512, 3895, 3896, 3867, 3866, 5326, 5327, 5298, 5297
3513, 3896, 3897, 3868, 3867, 5327, 5328, 5299, 5298
3514, 3897, 3898, 3869, 3868, 5328, 5329, 5300, 5299
3515, 3898, 3899, 3870, 3869, 5329, 5330, 5301, 5300
3516, 3899, 3900, 3871, 3870, 5330, 5331, 5302, 5301
3517, 3900, 3901, 3872, 3871, 5331, 5332, 5303, 5302
3518, 3901, 3902, 3873, 3872, 5332, 5333, 5304, 5303
3519, 3902, 3903, 3874, 3873, 5333, 5334, 5305, 5304
3520, 3903, 3904, 3875, 3874, 5334, 5335, 5306, 5305
3521, 3904, 3905, 3876, 3875, 5335, 5336, 5307, 5306
3522, 3905, 3906, 3877, 3876, 5336, 5337, 5308, 5307
3523, 3906, 3907, 3878, 3877, 5337, 5338, 5309, 5308
3524, 3907, 3908, 3879, 3878, 5338, 5339, 5310, 5309
3525, 3908, 3909, 3880, 3879, 5339, 5340, 5311, 5310
3526, 3909, 2926, 2925, 3880, 5340, 4357, 4356, 5311
3527, 2959, 3910, 3881, 2960, 4390, 5341, 5312, 4391
3528, 3910, 3911, 3882, 3881, 5341, 5342, 5313, 5312
3529, 3911, 3912, 3883, 3882, 5342, 5343, 5314, 5313
3530, 3912, 3913, 3884, 3883, 5343, 5344, 5315, 5314
3531, 3913, 3914, 3885, 3884, 5344, 5345, 5316, 5315
3532, 3914, 3915, 3886, 3885, 5345, 5346, 5317, 5316
3533, 3915, 3916, 3887, 3886, 5346, 5347, 5318, 5317
3534, 3916, 3917, 3888, 3887, 5347, 5348, 5319, 5318
3535, 3917, 3918, 3889, 3888, 5348, 5349, 5320, 5319
3536, 3918, 3919, 3890, 3889, 5349, 5350, 5321, 5320
3537, 3919, 3920, 3891, 3890, 5350, 5351, 5322, 5321
3538, 3920, 3921, 3892, 3891, 5351, 5352, 5323, 5322
3539, 3921, 3922, 3893, 3892, 5352, 5353, 5324, 5323
3540, 3922, 3923, 3894, 3893, 5353, 5354, 5325, 5324
3541, 3923, 3924, 3895, 3894, 5354, 5355, 5326, 5325
3542, 3924, 3925, 3896, 3895, 5355, 5356, 5327, 5326
3543, 3925, 3926, 3897, 3896, 5356, 5357, 5328, 5327
3544, 3926, 3927, 3898, 3897, 5357, 5358, 5329, 5328
3545, 3927, 3928, 3899, 3898, 5358, 5359, 5330, 5329
3546, 3928, 3929, 3900, 3899, 5359, 5360, 5331, 5330
3547, 3929, 3930, 3901, 3900, 5360, 5361, 5332, 5331
3548, 3930, 3931, 3902, 3901, 5361, 5362, 5333, 5332
3549, 3931, 3932, 3903, 3902, 5362, 5363, 5334, 5333
3550, 3932, 3933, 3904, 3903, 5363, 5364, 5335, 5334
3551, 3933, 3934, 3905, 3904, 5364, 5365, 5336, 5335
3552, 3934, 3935, 3906, 3905, 5365, 5366, 5337, 5336
3553, 3935, 3936, 3907, 3906, 5366, 5367, 5338, 5337
3554, 3936, 3937, 3908, 3907, 5367, 5368, 5339, 5338
3555, 3937, 3938, 3909, 3908, 5368, 5369, 5340, 5339
3556, 3938, 2927, 2926, 3909, 5369, 4358, 4357, 5340
3557, 2958, 3939, 3910, 2959, 4389, 5370, 5341, 4390
3558, 3939, 3940, 3911, 3910, 5370, 5371, 5342, 5341
3559, 3940, 3941, 3912, 3911, 5371, 5372, 5343, 5342
3560, 3941, 3942, 3913, 3912, 5372, 5373, 5344, 5343
3561, 3942, 3943, 3914, 3913, 5373, 5374, 5345, 5344
3562, 3943, 3944, 3915, 3914, 5374, 5375, 5346, 5345
3563, 3944, 3945, 3916, 3915, 5375, 5376, 5347, 5346
3564, 3945, 3946, 3917, 3916, 5376, 5377, 5348, 5347
3565, 3946, 3947, 3918, 3917, 5377, 5378, 5349, 5348
3566, 3947, 3948, 3919, 3918, 5378, 5379, 5350, 5349
3567, 3948, 3949, 3920, 3919, 5379, 5380, 5351, 5350
3568, 3949, 3950, 3921, 3920, 5380, 5381, 5352, 5351
3569, 3950, 3951, 3922, 3921, 5381, 5382, 5353, 5352
3570, 3951, 3952, 3923, 3922, 5382, 5383, 5354, 5353
3571, 3952, 3953, 3924, 3923, 5383, 5384, 5355, 5354
3572, 3953, 3954, 3925, 3924, 5384, 5385, 5356, 5355
3573, 3954, 3955, 3926, 3925, 5385, 5386, 5357, 5356
3574, 3955, 3956, 3927, 3926, 5386, 5387, 5358, 5357
3575, 3956, 3957, 3928, 3927, 5387, 5388, 5359, 5358
3576, 3957, 3958, 3929, 3928, 5388, 5389, 5360, 5359
3577, 3958, 3959, 3930, 3929, 5389, 5390, 5361, 5360
3578, 3959, 3960, 3931, 3930, 5390, 5391, 5362, 5361
3579, 3960, 3961, 3932, 3931, 5391, 5392, 5363, 5362
3580, 3961, 3962, 3933, 3932, 5392, 5393, 5364, 5363
3581, 3962, 3963, 3934, 3933, 5393, 5394, 5365, 5364
3582, 3963, 3964, 3935, 3934, 5394, 5395, 5366, 5365
3583, 3964, 3965, 3936, 3935, 5395, 5396, 5367, 5366
3584, 3965, 3966, 3937, 3936, 5396, 5397, 5368, 5367
3585, 3966, 3967, 3938, 3937, 5397, 5398, 5369, 5368
3586, 3967, 2928, 2927, 3938, 5398, 4359, 4358, 5369
3587, 2866, 2957, 3939, 2958, 4297, 4388, 5370, 4389
3588, 2957, 2956, 3940, 3939, 4388, 4387, 5371, 5370
3589, 2956, 2955, 3941, 3940, 4387, 4386, 5372, 5371
3590, 2955, 2954, 3942, 3941, 4386, 4385, 5373, 5372
3591, 2954, 2953, 3943, 3942, 4385, 4384, 5374, 5373
3592, 2953, 2952, 3944, 3943, 4384, 4383, 5375, 5374
3593, 2952, 2951, 3945, 3944, 4383, 4382, 5376, 5375
3594, 2951, 2950, 3946, 3945, 4382, 4381, 5377, 5376
3595, 2950, 2949, 3947, 3946, 4381, 4380, 5378, 5377
3596, 2949, 2948, 3948, 3947, 4380, 4379, 5379, 5378
3597, 2948, 2947, 3949, 3948, 4379, 4378, 5380, 5379
3598, 2947, 2946, 3950, 3949, 4378, 4377, 5381, 5380
3599, 2946, 2945, 3951, 3950, 4377, 4376, 5382, 5381
3600, 2945, 2944, 3952, 3951, 4376, 4375, 5383, 5382
3601, 2944, 2943, 3953, 3952, 4375, 4374, 5384, 5383
3602, 2943, 2942, 3954, 3953, 4374, 4373, 5385, 5384
3603, 2942, 2941, 3955, 3954, 4373, 4372, 5386, 5385
3604, 2941, 2940, 3956, 3955, 4372, 4371, 5387, 5386
3605, 2940, 2939, 3957, 3956, 4371, 4370, 5388, 5387
3606, 2939, 2938, 3958, 3957, 4370, 4369, 5389, 5388
3607, 2938, 2937, 3959, 3958, 4369, 4368, 5390, 5389
3608, 2937, 2936, 3960, 3959, 4368, 4367, 5391, 5390
3609, 2936, 2935, 3961, 3960, 4367, 4366, 5392, 5391
3610, 2935, 2934, 3962, 3961, 4366, 4365, 5393, 5392
3611, 2934, 2933, 3963, 3962, 4365, 4364, 5394, 5393
3612, 2933, 2932, 3964, 3963, 4364, 4363, 5395, 5394
3613, 2932, 2931, 3965, 3964, 4363, 4362, 5396, 5395
3614, 2931, 2930, 3966, 3965, 4362, 4361, 5397, 5396
3615, 2930, 2929, 3967, 3966, 4361, 4360, 5398, 5397
3616, 2929, 2865, 2928, 3967, 4360, 4296, 4359, 5398
3617, 2894, 4201, 3980, 2893, 4325, 5632, 5411, 4324
3618, 4032, 2892, 2893, 3980, 5463, 4323, 4324, 5411
3619, 3979, 2891, 2892, 4032, 5410, 4322, 4323, 5463
3620, 4036, 4176, 3080, 3079, 5467, 5607, 4511, 4510
3621, 3082, 3081, 4177, 4037, 4513, 4512, 5608, 5468
3622, 3981, 2895, 2896, 4195, 5412, 4326, 4327, 5626
3623, 2898, 4029, 3982, 2897, 4329, 5460, 5413, 4328
3624, 4201, 3981, 4195, 4104, 5632, 5412, 5626, 5535
3625, 4104, 4038, 3085, 3084, 5535, 5469, 4516, 4515
3626, 3086, 3085, 4038, 4039, 4517, 4516, 5469, 5470
3627, 3087, 3086, 4039, 4040, 4518, 4517, 5470, 5471
3628, 3088, 3087, 4040, 4041, 4519, 4518, 5471, 5472
3629, 4042, 3089, 3088, 4041, 5473, 4520, 4519, 5472
3630, 2900, 4130, 3984, 2864, 4331, 5561, 5415, 4295
3631, 2902, 4129, 3969, 2901, 4333, 5560, 5400, 4332
3632, 4027, 2903, 2904, 4196, 5458, 4334, 4335, 5627
3633, 4026, 2905, 2906, 4128, 5457, 4336, 4337, 5559
3634, 2908, 4033, 4025, 2907, 4339, 5464, 5456, 4338
3635, 4128, 2906, 2907, 4025, 5559, 4337, 4338, 5456
3636, 4116, 2890, 2891, 3979, 5547, 4321, 4322, 5410
3637, 3078, 3077, 4043, 4175, 4509, 4508, 5474, 5606
3638, 4175, 4036, 3079, 3078, 5606, 5467, 4510, 4509
3639, 4217, 2888, 2889, 3978, 5648, 4319, 4320, 5409
3640, 3977, 2886, 2887, 4242, 5408, 4317, 4318, 5673
3641, 3076, 3075, 4044, 4174, 4507, 4506, 5475, 5605
3642, 4216, 3977, 4174, 4044, 5647, 5408, 5605, 5475
3643, 2884, 2885, 4216, 3976, 4315, 4316, 5647, 5407
3644, 3074, 3073, 4045, 4173, 4505, 4504, 5476, 5604
3645, 4215, 3976, 4173, 4045, 5646, 5407, 5604, 5476
3646, 4215, 3975, 2882, 2883, 5646, 5406, 4313, 4314
3647, 4046, 4171, 3071, 3070, 5477, 5602, 4502, 4501
3648, 4236, 3975, 4172, 4171, 5667, 5406, 5603, 5602
3649, 2881, 2882, 3975, 4047, 4312, 4313, 5406, 5478
3650, 3069, 3068, 4048, 4170, 4500, 4499, 5479, 5601
3651, 4170, 4046, 3070, 3069, 5601, 5477, 4501, 4500
3652, 2880, 2881, 4047, 3974, 4311, 4312, 5478, 5405
3653, 2880, 3974, 4049, 2879, 4311, 5405, 5480, 4310
3654, 3067, 3066, 4053, 4169, 4498, 4497, 5484, 5600
3655, 4169, 4048, 3068, 3067, 5600, 5479, 4499, 4498
3656, 2879, 4049, 3973, 2878, 4310, 5480, 5404, 4309
3657, 4117, 2877, 2878, 3973, 5548, 4308, 4309, 5404
3658, 4198, 2875, 2876, 3972, 5629, 4306, 4307, 5403
3659, 4118, 2873, 2874, 3971, 5549, 4304, 4305, 5402
3660, 4119, 2871, 2872, 3968, 5550, 4302, 4303, 5399
3661, 2863, 3970, 4147, 4054, 4294, 5401, 5578, 5485
3662, 4148, 4050, 3054, 3053, 5579, 5481, 4485, 4484
3663, 4050, 4147, 3055, 3054, 5481, 5578, 4486, 4485
3664, 4147, 4051, 3056, 3055, 5578, 5482, 4487, 4486
3665, 3057, 4051, 4165, 3058, 4488, 5482, 5596, 4489
3666, 4168, 4167, 4223, 4279, 5599, 5598, 5654, 5710
3667, 4052, 4278, 3065, 3064, 5483, 5709, 4496, 4495
3668, 4278, 4053, 3066, 3065, 5709, 5484, 4497, 4496
3669, 2877, 4117, 3972, 2876, 4308, 5548, 5403, 4307
3670, 2863, 4054, 3985, 2986, 4294, 5485, 5416, 4417
3671, 2986, 3985, 4056, 2985, 4417, 5416, 5487, 4416
3672, 4055, 4149, 3052, 3051, 5486, 5580, 4483, 4482
3673, 3053, 3052, 4149, 4148, 4484, 4483, 5580, 5579
3674, 2984, 2985, 4056, 3986, 4415, 4416, 5487, 5417
3675, 2984, 3986, 4058, 2983, 4415, 5417, 5489, 4414
3676, 3050, 3049, 4057, 4150, 4481, 4480, 5488, 5581
3677, 4258, 4150, 3987, 4058, 5689, 5581, 5418, 5489
3678, 2983, 4058, 3987, 2982, 4414, 5489, 5418, 4413
3679, 3988, 2980, 2981, 4202, 5419, 4411, 4412, 5633
3680, 3048, 3047, 4260, 4151, 4479, 4478, 5691, 5582
3681, 4260, 4202, 4057, 4151, 5691, 5633, 5488, 5582
3682, 2982, 3987, 4202, 2981, 4413, 5418, 5633, 4412
3683, 4034, 2979, 2980, 3988, 5465, 4410, 4411, 5419
3684, 4120, 2977, 2978, 3989, 5551, 4408, 4409, 5420
3685, 4206, 2975, 2976, 3990, 5637, 4406, 4407, 5421
3686, 2974, 4243, 3991, 2973, 4405, 5674, 5422, 4404
3687, 4207, 3992, 2971, 2972, 5638, 5423, 4402, 4403
3688, 2969, 2970, 4208, 3993, 4400, 4401, 5639, 5424
3689, 2967, 2968, 4059, 3994, 4398, 4399, 5490, 5425
3690, 2966, 4060, 3995, 2965, 4397, 5491, 5426, 4396
3691, 4121, 2964, 2965, 3995, 5552, 4395, 4396, 5426
3692, 2964, 4121, 3996, 2963, 4395, 5552, 5427, 4394
3693, 4197, 2962, 2963, 3996, 5628, 4393, 4394, 5427
3694, 3997, 2961, 2962, 4197, 5428, 4392, 4393, 5628
3695, 4162, 4068, 3027, 3026, 5593, 5499, 4458, 4457
3696, 4061, 4274, 3030, 3029, 5492, 5705, 4461, 4460
3697, 4161, 4061, 3029, 3028, 5592, 5492, 4460, 4459
3698, 4274, 4062, 3031, 3030, 5705, 5493, 4462, 4461
3699, 4274, 4121, 4160, 4062, 5705, 5552, 5591, 5493
3700, 3994, 4261, 4228, 4060, 5425, 5692, 5659, 5491
3701, 4157, 4063, 4205, 3993, 5588, 5494, 5636, 5424
3702, 3993, 4208, 4064, 4157, 5424, 5639, 5495, 5588
3703, 4155, 4065, 4207, 3991, 5586, 5496, 5638, 5422
3704, 4155, 4206, 3990, 4066, 5586, 5637, 5421, 5497
3705, 4154, 4120, 3989, 4153, 5585, 5551, 5420, 5584
3706, 3047, 3046, 4152, 4260, 4478, 4477, 5583, 5691
3707, 3989, 2978, 2979, 4034, 5420, 4409, 4410, 5465
3708, 4122, 2960, 2961, 3997, 5553, 4391, 4392, 5428
3709, 3026, 3025, 4163, 4162, 4457, 4456, 5594, 5593
3710, 4161, 3028, 3027, 4068, 5592, 4459, 4458, 5499
3711, 4123, 2958, 2959, 3998, 5554, 4389, 4390, 5429
3712, 3022, 4072, 4164, 3023, 4453, 5503, 5595, 4454
3713, 4069, 4163, 3025, 3024, 5500, 5594, 4456, 4455
3714, 2866, 4014, 4146, 4028, 4297, 5445, 5577, 5459
3715, 4070, 4071, 3019, 3018, 5501, 5502, 4450, 4449
3716, 4146, 4072, 3021, 3020, 5577, 5503, 4452, 4451
3717, 2951, 2952, 4204, 4010, 4382, 4383, 5635, 5441
3718, 4035, 2950, 2951, 4010, 5466, 4381, 4382, 5441
3719, 4009, 2949, 2950, 4035, 5440, 4380, 4381, 5466
3720, 4073, 4143, 3010, 3009, 5504, 5574, 4441, 4440
3721, 3012, 3011, 4144, 4074, 4443, 4442, 5575, 5505
3722, 4145, 4074, 4270, 4271, 5576, 5505, 5701, 5702
3723, 2953, 2954, 4199, 4011, 4384, 4385, 5630, 5442
3724, 4124, 2948, 2949, 4009, 5555, 4379, 4380, 5440
3725, 3008, 3007, 4075, 4142, 4439, 4438, 5506, 5573
3726, 4142, 4073, 3009, 3008, 5573, 5504, 4440, 4439
3727, 4214, 2946, 2947, 4008, 5645, 4377, 4378, 5439
3728, 4007, 2944, 2945, 4244, 5438, 4375, 4376, 5675
3729, 3006, 3005, 4076, 4141, 4437, 4436, 5507, 5572
3730, 4076, 4213, 4007, 4263, 5507, 5644, 5438, 5694
3731, 2942, 2943, 4213, 4006, 4373, 4374, 5644, 5437
3732, 3004, 3003, 4077, 4140, 4435, 4434, 5508, 5571
3733, 4140, 4077, 4212, 4006, 5571, 5508, 5643, 5437
3734, 4212, 4005, 2940, 2941, 5643, 5436, 4371, 4372
3735, 4078, 4138, 3001, 3000, 5509, 5569, 4432, 4431
3736, 4262, 4139, 4138, 4285, 5693, 5570, 5569, 5716
3737, 2939, 2940, 4005, 4079, 4370, 4371, 5436, 5510
3738, 2999, 2998, 4080, 4137, 4430, 4429, 5511, 5568
3739, 4137, 4078, 3000, 2999, 5568, 5509, 4431, 4430
3740, 2939, 4079, 4004, 2938, 4370, 5510, 5435, 4369
3741, 2937, 2938, 4004, 4081, 4368, 4369, 5435, 5512
3742, 2997, 2996, 4085, 4136, 4428, 4427, 5516, 5567
3743, 4136, 4080, 2998, 2997, 5567, 5511, 4429, 4428
3744, 2936, 2937, 4081, 4003, 4367, 4368, 5512, 5434
3745, 4125, 2935, 2936, 4003, 5556, 4366, 4367, 5434
3746, 4200, 2933, 2934, 4002, 5631, 4364, 4365, 5433
3747, 4126, 2931, 2932, 4001, 5557, 4362, 4363, 5432
3748, 4229, 2929, 2930, 4000, 5660, 4360, 4361, 5431
3749, 3999, 4238, 4086, 2865, 5430, 5669, 5517, 4296
3750, 3124, 3123, 4082, 4194, 4555, 4554, 5513, 5625
3751, 2987, 4241, 4131, 2988, 4418, 5672, 5562, 4419
3752, 3125, 4083, 4241, 3126, 4556, 5514, 5672, 4557
3753, 4114, 4229, 4000, 4132, 5545, 5660, 5431, 5563
3754, 4115, 4221, 4224, 4133, 5546, 5652, 5655, 5564
3755, 4084, 4135, 2995, 2994, 5515, 5566, 4426, 4425
3756, 4135, 4085, 2996, 2995, 5566, 5516, 4427, 4426
3757, 4125, 4002, 2934, 2935, 5556, 5433, 4365, 4366
3758, 2865, 4086, 4015, 2928, 4296, 5517, 5446, 4359
3759, 2928, 4015, 4089, 2927, 4359, 5446, 5520, 4358
3760, 3122, 3121, 4087, 4088, 4553, 4552, 5518, 5519
3761, 3123, 3122, 4088, 4082, 4554, 4553, 5519, 5513
3762, 2927, 4089, 4016, 2926, 4358, 5520, 5447, 4357
3763, 2926, 4016, 4092, 2925, 4357, 5447, 5523, 4356
3764, 3120, 3119, 4090, 4091, 4551, 4550, 5521, 5522
3765, 3121, 3120, 4091, 4087, 4552, 4551, 5522, 5518
3766, 2924, 2925, 4092, 4017, 4355, 4356, 5523, 5448
3767, 4203, 4018, 2922, 2923, 5634, 5449, 4353, 4354
3768, 3118, 3117, 4290, 4193, 4549, 4548, 5721, 5624
3769, 4290, 4203, 4090, 4193, 5721, 5634, 5521, 5624
3770, 2923, 2924, 4017, 4203, 4354, 4355, 5448, 5634
3771, 4031, 2921, 2922, 4018, 5462, 4352, 4353, 5449
3772, 4127, 2919, 2920, 4019, 5558, 4350, 4351, 5450
3773, 4020, 4210, 2917, 2918, 5451, 5641, 4348, 4349
3774, 2916, 4245, 4021, 2915, 4347, 5676, 5452, 4346
3775, 4209, 4022, 2913, 2914, 5640, 5453, 4344, 4345
3776, 2911, 2912, 4218, 4023, 4342, 4343, 5649, 5454
3777, 2910, 4093, 4024, 2909, 4341, 5524, 5455, 4340
3778, 4226, 4094, 4025, 4033, 5657, 5525, 5456, 5464
3779, 4184, 4095, 3101, 3100, 5615, 5526, 4532, 4531
3780, 3100, 3099, 4096, 4184, 4531, 4530, 5527, 5615
3781, 4183, 4096, 3099, 3098, 5614, 5527, 4530, 4529
3782, 3096, 4097, 4182, 3097, 4527, 5528, 5613, 4528
3783, 3095, 3094, 4098, 4181, 4526, 4525, 5529, 5612
3784, 2870, 3091, 4099, 3092, 4301, 4522, 5530, 4523
3785, 3092, 4099, 4180, 3093, 4523, 5530, 5611, 4524
3786, 4196, 2904, 2905, 4026, 5627, 4335, 4336, 5457
3787, 4129, 2902, 2903, 4027, 5560, 4333, 4334, 5458
3788, 4130, 2900, 2901, 3969, 5561, 4331, 4332, 5400
3789, 4145, 4100, 3014, 3013, 5576, 5531, 4445, 4444
3790, 3015, 3014, 4100, 4101, 4446, 4445, 5531, 5532
3791, 2955, 2956, 4030, 4012, 4386, 4387, 5461, 5443
3792, 3016, 3015, 4101, 4102, 4447, 4446, 5532, 5533
3793, 3018, 3017, 4103, 4070, 4449, 4448, 5534, 5501
3794, 2866, 4028, 4013, 2957, 4297, 5459, 5444, 4388
3795, 4097, 4181, 4287, 4288, 5528, 5612, 5718, 5719
3796, 4024, 4286, 4226, 4033, 5455, 5717, 5657, 5464
3797, 4093, 4283, 4286, 4024, 5524, 5714, 5717, 5455
3798, 4187, 4186, 4235, 4023, 5618, 5617, 5666, 5454
3799, 4187, 4106, 3108, 3107, 5618, 5537, 4539, 4538
3800, 4218, 4022, 4188, 4106, 5649, 5453, 5619, 5537
3801, 4188, 4107, 3110, 3109, 5619, 5538, 4541, 4540
3802, 4209, 4021, 4189, 4107, 5640, 5452, 5620, 5538
3803, 4189, 4108, 3112, 3111, 5620, 5539, 4543, 4542
3804, 4211, 4190, 4108, 4020, 5642, 5621, 5539, 5451
3805, 2919, 4127, 4020, 2918, 4350, 5558, 5451, 4349
3806, 4109, 4191, 3115, 3114, 5540, 5622, 4546, 4545
3807, 3117, 3116, 4192, 4290, 4548, 4547, 5623, 5721
3808, 4019, 2920, 2921, 4031, 5450, 4351, 4352, 5462
3809, 4110, 4166, 3060, 3059, 5541, 5597, 4491, 4490
3810, 4111, 4167, 3062, 3061, 5542, 5598, 4493, 4492
3811, 4118, 4223, 4280, 3968, 5549, 5654, 5711, 5399
3812, 4168, 4052, 3064, 3063, 5599, 5483, 4495, 4494
3813, 3971, 2874, 2875, 4198, 5402, 4305, 4306, 5629
3814, 2864, 4112, 3983, 2899, 4295, 5543, 5414, 4330
3815, 2864, 3984, 4237, 4112, 4295, 5415, 5668, 5543
3816, 2974, 2975, 4206, 4243, 4405, 4406, 5637, 5674
3817, 4208, 3992, 4156, 4064, 5639, 5423, 5587, 5495
3818, 4281, 4205, 4063, 4158, 5712, 5636, 5494, 5589
3819, 4113, 4228, 4261, 4159, 5544, 5659, 5692, 5590
3820, 4228, 4113, 3995, 4060, 5659, 5544, 5426, 5491
3821, 4113, 4160, 4121, 3995, 5544, 5591, 5552, 5426
3822, 4114, 4132, 2990, 2989, 5545, 5563, 4421, 4420
3823, 4131, 3999, 4229, 4114, 5562, 5430, 5660, 5545
3824, 4115, 4133, 2992, 2991, 5546, 5564, 4423, 4422
3825, 4132, 4000, 4221, 4115, 5563, 5431, 5652, 5546
3826, 4134, 4084, 2994, 2993, 5565, 5515, 4425, 4424
3827, 4001, 2932, 2933, 4200, 5432, 4363, 4364, 5631
3828, 4029, 2898, 2899, 3983, 5460, 4329, 4330, 5414
3829, 4195, 2896, 2897, 3982, 5626, 4327, 4328, 5413
3830, 3981, 4201, 2894, 2895, 5412, 5632, 4325, 4326
3831, 3978, 2889, 2890, 4116, 5409, 4320, 4321, 5547
3832, 4217, 4242, 2887, 2888, 5648, 5673, 4318, 4319
3833, 3977, 4216, 2885, 2886, 5408, 5647, 4316, 4317
3834, 3976, 4215, 2883, 2884, 5407, 5646, 4314, 4315
3835, 3968, 2872, 2873, 4118, 5399, 4303, 4304, 5549
3836, 3970, 2863, 2871, 4119, 5401, 4294, 4302, 5550
3837, 3990, 2976, 2977, 4120, 5421, 4407, 4408, 5551
3838, 3991, 4207, 2972, 2973, 5422, 5638, 4403, 4404
3839, 3992, 4208, 2970, 2971, 5423, 5639, 4401, 4402
3840, 3993, 4059, 2968, 2969, 5424, 5490, 4399, 4400
3841, 4060, 2966, 2967, 3994, 5491, 4397, 4398, 5425
3842, 3998, 2959, 2960, 4122, 5429, 4390, 4391, 5553
3843, 4014, 2866, 2958, 4123, 5445, 4297, 4389, 5554
3844, 4030, 2956, 2957, 4013, 5461, 4387, 4388, 5444
3845, 4199, 2954, 2955, 4012, 5630, 4385, 4386, 5443
3846, 4011, 4204, 2952, 2953, 5442, 5635, 4383, 4384
3847, 4008, 2947, 2948, 4124, 5439, 4378, 4379, 5555
3848, 4244, 2945, 2946, 4214, 5675, 4376, 4377, 5645
3849, 4007, 4213, 2943, 2944, 5438, 5644, 4374, 4375
3850, 4006, 4212, 2941, 2942, 5437, 5643, 4372, 4373
3851, 4000, 2930, 2931, 4126, 5431, 4361, 4362, 5557
3852, 4229, 3999, 2865, 2929, 5660, 5430, 4296, 4360
3853, 4245, 2916, 2917, 4210, 5676, 4347, 4348, 5641
3854, 4209, 2914, 2915, 4021, 5640, 4345, 4346, 5452
3855, 4022, 4218, 2912, 2913, 5453, 5649, 4343, 4344
3856, 4023, 4093, 2910, 2911, 5454, 5524, 4341, 4342
3857, 4033, 2908, 2909, 4024, 5464, 4339, 4340, 5455
3858, 4000, 4126, 4224, 4221, 5431, 5557, 5655, 5652
3859, 4085, 4135, 4256, 4257, 5516, 5566, 5687, 5688
3860, 3003, 3002, 4139, 4077, 4434, 4433, 5570, 5508
3861, 3005, 3004, 4140, 4076, 4436, 4435, 5571, 5507
3862, 3007, 3006, 4141, 4075, 4438, 4437, 5572, 5506
3863, 3011, 3010, 4143, 4144, 4442, 4441, 5574, 5575
3864, 4273, 4101, 4100, 4272, 5704, 5532, 5531, 5703
3865, 4230, 4250, 4012, 4030, 5661, 5681, 5443, 5461
3866, 4014, 4164, 4072, 4146, 5445, 5595, 5503, 5577
3867, 4072, 3022, 2868, 3021, 5503, 4453, 4299, 4452
3868, 4051, 3057, 2869, 3056, 5482, 4488, 4300, 4487
3869, 3970, 4165, 4051, 4147, 5401, 5596, 5482, 5578
3870, 4252, 4148, 4149, 4232, 5683, 5579, 5580, 5663
3871, 3051, 3050, 4150, 4055, 4482, 4481, 5581, 5486
3872, 3049, 3048, 4151, 4057, 4480, 4479, 5582, 5488
3873, 3046, 3045, 4067, 4152, 4477, 4476, 5498, 5583
3874, 3045, 3044, 4153, 4067, 4476, 4475, 5584, 5498
3875, 3992, 4207, 4065, 4156, 5423, 5638, 5496, 5587
3876, 3036, 3035, 4158, 4063, 4467, 4466, 5589, 5494
3877, 3998, 4276, 4162, 4163, 5429, 5707, 5593, 5594
3878, 3058, 4165, 4110, 3059, 4489, 5596, 5541, 4490
3879, 3968, 4280, 4111, 4166, 5399, 5711, 5542, 5597
3880, 4169, 4053, 4278, 4117, 5600, 5484, 5709, 5548
3881, 3073, 3072, 4172, 4045, 4504, 4503, 5603, 5476
3882, 3075, 3074, 4173, 4044, 4506, 4505, 5604, 5475
3883, 3077, 3076, 4174, 4043, 4508, 4507, 5605, 5474
3884, 3081, 3080, 4176, 4177, 4512, 4511, 5607, 5608
3885, 4195, 4255, 4038, 4104, 5626, 5686, 5469, 5535
3886, 4042, 4041, 4233, 4237, 5473, 5472, 5664, 5668
3887, 3984, 4179, 4042, 4237, 5415, 5610, 5473, 5668
3888, 3984, 4180, 4099, 4179, 5415, 5611, 5530, 5610
3889, 3096, 3095, 4181, 4097, 4527, 4526, 5612, 5528
3890, 4182, 4220, 4129, 4027, 5613, 5651, 5560, 5458
3891, 4094, 3103, 3102, 4293, 5525, 4534, 4533, 5724
3892, 4286, 4283, 4105, 4185, 5717, 5714, 5536, 5616
3893, 3106, 3105, 4105, 4186, 4537, 4536, 5536, 5617
3894, 4022, 4209, 4107, 4188, 5453, 5640, 5538, 5619
3895, 4020, 4108, 4245, 4210, 5451, 5539, 5676, 5641
3896, 4190, 4211, 4292, 4109, 5621, 5642, 5723, 5540
3897, 4192, 3116, 3115, 4191, 5623, 4547, 4546, 5622
3898, 3119, 3118, 4193, 4090, 4550, 4549, 5624, 5521
3899, 4203, 4017, 4091, 4090, 5634, 5448, 5522, 5521
3900, 4082, 4088, 4239, 4231, 5513, 5519, 5670, 5662
3901, 4194, 4238, 3999, 4083, 5625, 5669, 5430, 5514
3902, 3126, 4241, 2987, 2867, 4557, 5672, 4418, 4298
3903, 4041, 4040, 4240, 4233, 5472, 5471, 5671, 5664
3904, 4109, 4292, 4291, 4191, 5540, 5723, 5722, 5622
3905, 4124, 4009, 4268, 4267, 5555, 5440, 5699, 5698
3906, 4175, 4116, 3979, 4036, 5606, 5547, 5410, 5467
3907, 4043, 3978, 4116, 4175, 5474, 5409, 5547, 5606
3908, 4037, 4178, 3083, 3082, 5468, 5609, 4514, 4513
3909, 4176, 4032, 3980, 4177, 5607, 5463, 5411, 5608
3910, 3982, 4029, 4240, 4254, 5413, 5460, 5671, 5685
3911, 4240, 4029, 3983, 4233, 5671, 5460, 5414, 5664
3912, 4042, 4179, 3090, 3089, 5473, 5610, 4521, 4520
3913, 4242, 4217, 3978, 4043, 5673, 5648, 5409, 5474
3914, 3975, 4215, 4045, 4172, 5406, 5646, 5476, 5603
3915, 4048, 4227, 4277, 4170, 5479, 5658, 5708, 5601
3916, 3974, 4277, 4227, 4049, 5405, 5708, 5658, 5480
3917, 4048, 4169, 4117, 3973, 5479, 5600, 5548, 5404
3918, 4227, 4048, 3973, 4049, 5658, 5479, 5404, 5480
3919, 4252, 4251, 4050, 4148, 5683, 5682, 5481, 5579
3920, 4168, 4198, 3972, 4052, 5599, 5629, 5403, 5483
3921, 4198, 4168, 4279, 3971, 5629, 5599, 5710, 5402
3922, 4252, 3985, 4054, 4251, 5683, 5416, 5485, 5682
3923, 4202, 3987, 4150, 4057, 5633, 5418, 5581, 5488
3924, 4067, 4034, 3988, 4152, 5498, 5465, 5419, 5583
3925, 4161, 4197, 3996, 4061, 5592, 5628, 5427, 5492
3926, 4197, 4161, 4275, 3997, 5628, 5592, 5706, 5428
3927, 4062, 4160, 3032, 3031, 5493, 5591, 4463, 4462
3928, 4063, 4157, 3037, 3036, 5494, 5588, 4468, 4467
3929, 4157, 4064, 3038, 3037, 5588, 5495, 4469, 4468
3930, 4064, 4156, 3039, 3038, 5495, 5587, 4470, 4469
3931, 4156, 4065, 3040, 3039, 5587, 5496, 4471, 4470
3932, 4065, 4155, 3041, 3040, 5496, 5586, 4472, 4471
3933, 4155, 4066, 3042, 3041, 5586, 5497, 4473, 4472
3934, 4066, 4154, 3043, 3042, 5497, 5585, 4474, 4473
3935, 4162, 4276, 4222, 4068, 5593, 5707, 5653, 5499
3936, 4013, 4249, 4230, 4030, 5444, 5680, 5661, 5461
3937, 4071, 4146, 3020, 3019, 5502, 5577, 4451, 4450
3938, 4249, 4013, 4028, 4248, 5680, 5444, 5459, 5679
3939, 4142, 4266, 4267, 4073, 5573, 5697, 5698, 5504
3940, 4074, 4145, 3013, 3012, 5505, 5576, 4444, 4443
3941, 4268, 4009, 4035, 4269, 5699, 5440, 5466, 5700
3942, 4244, 4214, 4265, 4264, 5675, 5645, 5696, 5695
3943, 4076, 4263, 4264, 4141, 5507, 5694, 5695, 5572
3944, 4078, 4234, 4285, 4138, 5509, 5665, 5716, 5569
3945, 4234, 4078, 4004, 4079, 5665, 5509, 5435, 5510
3946, 4004, 4078, 4137, 4284, 5435, 5509, 5568, 5715
3947, 4225, 4080, 4136, 4259, 5656, 5511, 5567, 5690
3948, 4225, 4259, 4003, 4081, 5656, 5690, 5434, 5512
3949, 4015, 4231, 4239, 4089, 5446, 5662, 5670, 5520
3950, 4194, 4083, 3125, 3124, 5625, 5514, 4556, 4555
3951, 4001, 4200, 4247, 4246, 5432, 5631, 5678, 5677
3952, 4002, 4125, 4257, 4256, 5433, 5556, 5688, 5687
3953, 4238, 4231, 4015, 4086, 5669, 5662, 5446, 5517
3954, 4017, 4092, 4087, 4091, 5448, 5523, 5518, 5522
3955, 4289, 4016, 4089, 4239, 5720, 5447, 5520, 5670
3956, 4088, 4087, 4289, 4239, 5519, 5518, 5720, 5670
3957, 4219, 4031, 4018, 4192, 5650, 5462, 5449, 5623
3958, 4094, 4226, 4286, 4185, 5525, 5657, 5717, 5616
3959, 4094, 4185, 3104, 3103, 5525, 5616, 4535, 4534
3960, 4128, 4184, 4096, 4026, 5559, 5615, 5527, 5457
3961, 3102, 3101, 4095, 4293, 4533, 4532, 5526, 5724
3962, 4183, 4196, 4026, 4096, 5614, 5627, 5457, 5527
3963, 4098, 4130, 4287, 4181, 5529, 5561, 5718, 5612
3964, 4180, 4098, 3094, 3093, 5611, 5529, 4525, 4524
3965, 4179, 4099, 3091, 3090, 5610, 5530, 4522, 4521
3966, 4270, 4010, 4204, 4271, 5701, 5441, 5635, 5702
3967, 4273, 4250, 4102, 4101, 5704, 5681, 5533, 5532
3968, 3017, 3016, 4102, 4103, 4448, 4447, 5533, 5534
3969, 4249, 4070, 4103, 4230, 5680, 5501, 5534, 5661
3970, 4037, 4201, 4104, 4178, 5468, 5632, 5535, 5609
3971, 4178, 4104, 3084, 3083, 5609, 5535, 4515, 4514
3972, 4185, 4105, 3105, 3104, 5616, 5536, 4536, 4535
3973, 4106, 4188, 3109, 3108, 5537, 5619, 4540, 4539
3974, 4023, 4218, 4106, 4187, 5454, 5649, 5537, 5618
3975, 4107, 4189, 3111, 3110, 5538, 5620, 4542, 4541
3976, 4108, 4190, 3113, 3112, 5539, 5621, 4544, 4543
3977, 3113, 4190, 4109, 3114, 4544, 5621, 5540, 4545
3978, 4020, 4127, 4292, 4211, 5451, 5558, 5723, 5642
3979, 4110, 4119, 3968, 4166, 5541, 5550, 5399, 5597
3980, 4166, 4111, 3061, 3060, 5597, 5542, 4492, 4491
3981, 4233, 3983, 4112, 4237, 5664, 5414, 5543, 5668
3982, 4160, 4113, 3033, 3032, 5591, 5544, 4464, 4463
3983, 4113, 4159, 3034, 3033, 5544, 5590, 4465, 4464
3984, 4241, 4083, 3999, 4131, 5672, 5514, 5430, 5562
3985, 4131, 4114, 2989, 2988, 5562, 5545, 4420, 4419
3986, 4132, 4115, 2991, 2990, 5563, 5546, 4422, 4421
3987, 4121, 4274, 4061, 3996, 5552, 5705, 5492, 5427
3988, 4122, 4222, 4276, 3998, 5553, 5653, 5707, 5429
3989, 4200, 4002, 4256, 4247, 5631, 5433, 5687, 5678
3990, 4129, 4220, 4288, 3969, 5560, 5651, 5719, 5400
3991, 4180, 3984, 4130, 4098, 5611, 5415, 5561, 5529
3992, 2993, 2992, 4133, 4134, 4424, 4423, 5564, 5565
3993, 4256, 4135, 4084, 4247, 5687, 5566, 5515, 5678
3994, 4003, 4259, 4136, 4125, 5434, 5690, 5567, 5556
3995, 4080, 4225, 4284, 4137, 5511, 5656, 5715, 5568
3996, 3002, 3001, 4138, 4139, 4433, 4432, 5569, 5570
3997, 4285, 4234, 4079, 4005, 5716, 5665, 5510, 5436
3998, 4266, 4265, 4214, 4008, 5697, 5696, 5645, 5439
3999, 4143, 4073, 4267, 4268, 5574, 5504, 5698, 5699
4000, 4268, 4269, 4144, 4143, 5699, 5700, 5575, 5574
4001, 4232, 4253, 3986, 4056, 5663, 5684, 5417, 5487
4002, 4253, 4055, 4150, 4258, 5684, 5486, 5581, 5689
4003, 4154, 4153, 3044, 3043, 5585, 5584, 4475, 4474
4004, 4153, 3989, 4034, 4067, 5584, 5420, 5465, 5498
4005, 4159, 4158, 3035, 3034, 5590, 5589, 4466, 4465
4006, 4069, 4123, 3998, 4163, 5500, 5554, 5429, 5594
4007, 4069, 3024, 3023, 4164, 5500, 4455, 4454, 5595
4008, 4168, 3063, 3062, 4167, 5599, 4494, 4493, 5598
4009, 3072, 3071, 4171, 4172, 4503, 4502, 5602, 5603
4010, 4282, 4047, 3975, 4236, 5713, 5478, 5406, 5667
4011, 3976, 4216, 4044, 4173, 5407, 5647, 5475, 5604
4012, 4036, 3979, 4032, 4176, 5467, 5410, 5463, 5607
4013, 4177, 3980, 4201, 4037, 5608, 5411, 5632, 5468
4014, 4182, 4097, 4288, 4220, 5613, 5528, 5719, 5651
4015, 3098, 3097, 4182, 4183, 4529, 4528, 5613, 5614
4016, 4293, 4095, 4184, 4128, 5724, 5526, 5615, 5559
4017, 4128, 4025, 4094, 4293, 5559, 5456, 5525, 5724
4018, 3107, 3106, 4186, 4187, 4538, 4537, 5617, 5618
4019, 4283, 4093, 4023, 4235, 5714, 5524, 5454, 5666
4020, 4192, 4191, 4291, 4219, 5623, 5622, 5722, 5650
4021, 4238, 4194, 4082, 4231, 5669, 5625, 5513, 5662
4022, 4038, 4255, 4254, 4039, 5469, 5686, 5685, 5470
4023, 4182, 4027, 4196, 4183, 5613, 5458, 5627, 5614
4024, 4126, 4001, 4246, 4224, 5557, 5432, 5677, 5655
4025, 4192, 4018, 4203, 4290, 5623, 5449, 5634, 5721
4026, 4281, 4059, 3993, 4205, 5712, 5490, 5424, 5636
4027, 3991, 4243, 4206, 4155, 5422, 5674, 5637, 5586
4028, 4262, 4285, 4005, 4212, 5693, 5716, 5436, 5643
4029, 4006, 4213, 4076, 4140, 5437, 5644, 5507, 5571
4030, 4124, 4267, 4266, 4008, 5555, 5698, 5697, 5439
4031, 4291, 4019, 4031, 4219, 5722, 5450, 5462, 5650
4032, 4161, 4068, 4222, 4275, 5592, 5499, 5653, 5706
4033, 4111, 4280, 4223, 4167, 5542, 5711, 5654, 5598
4034, 4246, 4134, 4133, 4224, 5677, 5565, 5564, 5655
4035, 4283, 4235, 4186, 4105, 5714, 5666, 5617, 5536
4036, 4282, 4236, 4171, 4046, 5713, 5667, 5602, 5477
4037, 4146, 4071, 4248, 4028, 5577, 5502, 5679, 5459
4038, 4147, 4050, 4251, 4054, 5578, 5481, 5682, 5485
4039, 4102, 4250, 4230, 4103, 5533, 5681, 5661, 5534
4040, 4255, 4195, 3982, 4254, 5686, 5626, 5413, 5685
4041, 4254, 4240, 4040, 4039, 5685, 5671, 5471, 5470
4042, 4149, 4055, 4253, 4232, 5580, 5486, 5684, 5663
4043, 4043, 4174, 3977, 4242, 5474, 5605, 5408, 5673
4044, 4265, 4075, 4141, 4264, 5696, 5506, 5572, 5695
4045, 4264, 4263, 4007, 4244, 5695, 5694, 5438, 5675
4046, 4108, 4189, 4021, 4245, 5539, 5620, 5452, 5676
4047, 4247, 4084, 4134, 4246, 5678, 5515, 5565, 5677
4048, 4249, 4248, 4071, 4070, 5680, 5679, 5502, 5501
4049, 4273, 4199, 4012, 4250, 5704, 5630, 5443, 5681
4050, 4232, 4056, 3985, 4252, 5663, 5487, 5416, 5683
4051, 4199, 4273, 4272, 4011, 5630, 5704, 5703, 5442
4052, 4125, 4136, 4085, 4257, 5556, 5567, 5516, 5688
4053, 4058, 3986, 4253, 4258, 5489, 5417, 5684, 5689
4054, 4120, 4154, 4066, 3990, 5551, 5585, 5497, 5421
4055, 4261, 4281, 4158, 4159, 5692, 5712, 5589, 5590
4056, 4212, 4077, 4139, 4262, 5643, 5508, 5570, 5693
4057, 4265, 4266, 4142, 4075, 5696, 5697, 5573, 5506
4058, 4074, 4144, 4269, 4270, 5505, 5575, 5700, 5701
4059, 4010, 4270, 4269, 4035, 5441, 5701, 5700, 5466
4060, 4204, 4100, 4145, 4271, 5635, 5531, 5576, 5702
4061, 4100, 4204, 4011, 4272, 5531, 5635, 5442, 5703
4062, 4222, 4122, 3997, 4275, 5653, 5553, 5428, 5706
4063, 4047, 4282, 4277, 3974, 5478, 5713, 5708, 5405
4064, 4277, 4282, 4046, 4170, 5708, 5713, 5477, 5601
4065, 4223, 4118, 3971, 4279, 5654, 5549, 5402, 5710
4066, 4052, 3972, 4117, 4278, 5483, 5403, 5548, 5709
4067, 4152, 3988, 4202, 4260, 5583, 5419, 5633, 5691
4068, 4261, 3994, 4059, 4281, 5692, 5425, 5490, 5712
4069, 4110, 4165, 3970, 4119, 5541, 5596, 5401, 5550
4070, 4069, 4164, 4014, 4123, 5500, 5595, 5445, 5554
4071, 4225, 4081, 4004, 4284, 5656, 5512, 5435, 5715
4072, 3969, 4288, 4287, 4130, 5400, 5719, 5718, 5561
4073, 4087, 4092, 4016, 4289, 5518, 5523, 5447, 5720
4074, 4127, 4019, 4291, 4292, 5558, 5450, 5722, 5723
*Nset, nset=Set-film, generate
    1,  5724,     1
*Elset, elset=Set-film, generate
    1,  4074,     1
*Elset, elset=_s_Surf-1_S2, internal, generate
 2717,  4074,     1
*Surface, type=ELEMENT, name=s_Surf-1
_s_Surf-1_S2, S2
** Section: pdms-section
*Solid Section, elset=Set-film, material=pdms
,
*End Part
**  
*Part, name=solid-object
*Node
      1,           0., 0.0900000036,         -1.5
      2,           0.,   1.84050536,   1.20454776
      3,           0.,   1.84050536,  -1.20454776
      4,           0.,  -1.39999998, -0.00999999978
      5,  0.610104978, 0.0900000036,  -1.37031817
      6,   1.11471725, 0.0900000036,  -1.00369596
      7,   1.42658472, 0.0900000036, -0.463525504
      8,   1.49178278, 0.0900000036,    0.1567927
      9,   1.29903805, 0.0900000036,         0.75
     10,  0.881677866, 0.0900000036,   1.21352553
     11,  0.311867535, 0.0900000036,   1.46722138
     12, -0.311867535, 0.0900000036,   1.46722138
     13, -0.881677866, 0.0900000036,   1.21352553
     14,  -1.29903805, 0.0900000036,         0.75
     15,  -1.49178278, 0.0900000036,    0.1567927
     16,  -1.42658472, 0.0900000036, -0.463525504
     17,  -1.11471725, 0.0900000036,  -1.00369596
     18, -0.610104978, 0.0900000036,  -1.37031817
     19,           0.,  0.663343489,   -1.3466022
     20,           0.,   1.24857545,   -1.2478261
     21, -0.460960478,   1.84050536,   1.11285698
     22, -0.851743877,   1.84050536,  0.851743877
     23,  -1.11285698,   1.84050536,  0.460960478
     24,  -1.20454776,   1.84050536,           0.
     25,  -1.11285698,   1.84050536, -0.460960478
     26, -0.851743877,   1.84050536, -0.851743877
     27, -0.460960478,   1.84050536,  -1.11285698
     28,  0.522633672,   1.84050536,  -1.08526003
     29,  0.941753328,   1.84050536, -0.751023233
     30,   1.17434716,   1.84050536, -0.268037081
     31,   1.17434716,   1.84050536,  0.268037081
     32,  0.941753328,   1.84050536,  0.751023233
     33,  0.522633672,   1.84050536,   1.08526003
     34, 0.00999999978,  -1.39999998,           0.
     35,           0.,  -1.39999998, 0.00999999978
     36, -0.00999999978,  -1.39999998,           0.
     37,           0.,  -1.28658056, -0.580198288
     38,           0., -0.963589132,   -1.0635891
     39,           0., -0.480198324,  -1.38658047
     40, -0.558544397,   0.66237402,  -1.22553432
     41,  -1.01429558,   0.65964222, -0.886969924
     42,  -1.28839147,  0.655640125, -0.397387952
     43,  -1.34057033,  0.651075482,  0.153107181
     44,  -1.17163277,  0.646739542,    0.6711362
     45, -0.817063451,  0.643373191,   1.07590055
     46, -0.337016523,  0.641552687,   1.30868745
     47,  0.193828002,  0.641607761,   1.33740079
     48,  0.713335097,  0.642962933,   1.14741135
     49,   1.11539161,  0.646103799,  0.761201382
     50,   1.32819653,  0.650438428,  0.238417089
     51,   1.30631864,   0.65516144, -0.334191412
     52,   1.04303098,  0.659385741, -0.853081644
     53,  0.578894317,  0.662302732,  -1.21607125
     54, -0.508867264,   1.24803996,  -1.13942325
     55, -0.926837862,   1.24652815, -0.835858285
     56,  -1.18404901,    1.2443037, -0.395459801
     57,  -1.24441087,   1.24174678,  0.102851354
     58,  -1.10749233,   1.23928499,  0.577362478
     59,  -0.80269897,   1.23732328,  0.957162797
     60,   -0.3805013,   1.23618388,   1.18998063
     61,  0.096111618,   1.23606348,   1.24564636
     62,  0.596014738,   1.23667681,   1.09793019
     63,  0.994617343,   1.23840106,  0.755574644
     64,   1.21868122,   1.24089503,  0.272418886
     65,   1.21902966,   1.24367452, -0.269291192
     66,  0.983900309,   1.24619389, -0.767937958
     67,  0.549501121,   1.24794745,   -1.1204052
     68,  0.312769651,   1.84050536,  0.214223683
     69,  0.576647639,   1.84050536,  0.409045041
     70,  0.263258815,   1.84050536, -0.144735143
     71, -0.143536299,   1.84050536,  -0.40119344
     72,  -0.31165722,   1.84050536, -0.136899114
     73, -0.422540963,   1.84050536,  0.128232092
     74,  -0.42506963,   1.84050536,  0.424384803
     75,  0.297210276,   1.84050536,  0.659267604
     76, -0.132042974,   1.84050536,  0.432403535
     77, -0.0294778012,   1.84050536, 0.0559271276
     78, -0.189955562,   1.84050536,  0.200823247
     79,  0.116606012,   1.84050536,   0.33890745
     80, -0.0509048738,   1.84050536,  0.766733766
     81,  -0.39608103,   1.84050536,  0.750985146
     82, -0.676915526,   1.84050536,  0.675902367
     83, -0.752109766,   1.84050536,  0.395681232
     84, -0.766011953,   1.84050536, 0.0516856983
     85,  -0.67710191,   1.84050536, -0.284525961
     86, -0.509327412,   1.84050536, -0.580676198
     87, -0.333698004,   1.84050536, -0.811738431
     88, -0.0149001209,   1.84050536, -0.750619829
     89,  0.387429863,   1.84050536, -0.593545496
     90,  0.795886636,   1.84050536, -0.385946721
     91,  0.714111984,   1.84050536, 0.0449931994
     92, -0.568210244, -0.477936149,  -1.26583409
     93, -0.471964151, -0.927232742, -0.992200613
     94,  -1.34898007, -0.427606165, -0.400600642
     95,  -1.05325389, -0.455084622, -0.917318523
     96,  -1.14541376,  -0.83106041, -0.288616359
     97, -0.401605904,  -1.18736672, -0.665273547
     98, -0.892937124, -0.874657571, -0.717642367
     99, -0.543981671,  -1.26511145,  -0.31677565
    100, -0.476486742,  -1.31415963, -0.177383333
    101, -0.364503831,  -1.32851851, -0.290278137
    102, -0.714781523,  -1.12942016, -0.489311934
    103, -0.684921205,  -1.23547816, -0.088332139
    104, -0.365410239,  -1.35589254, 0.0571596548
    105, -0.519882441,  -1.30921674, -0.0485573001
    106,  -1.40342689, -0.403389066,  0.187826842
    107,  -1.21418643, -0.382588297,  0.742208242
    108, -0.928608716,  -1.06547034,  0.203933254
    109, -0.786474347,  -1.04876351,  0.569292128
    110, -0.684887946, -0.744879127,   1.03864717
    111, -0.290584981, -0.348867208,   1.40414882
    112, -0.506656945,  -1.02518725,   0.86001122
    113,  -0.24279137, -0.716608942,   1.23922968
    114, -0.422910869,  -1.30797744,  0.311955035
    115, -0.691687226,  -1.22272968,  0.180573836
    116, -0.575771987,  -1.21683216,  0.441804469
    117, -0.316260964,  -1.34384024,    0.2690458
    118, -0.373985767,  -1.34076512,  0.203873977
    119, -0.294646591,  -1.21700907,  0.662886977
    120,  -0.27814725,  -1.30983281,  0.439899474
    121, -0.0192965735,   -1.1288892,  0.866761982
    122, 0.0158065222,  -1.35549188,  0.371123254
    123, -0.0848980844,  -1.36214602,   0.33307454
    124,  0.222884536, -0.720975995,   1.24009669
    125,   0.81233114, -0.372273684,   1.17258286
    126,  0.666493595, -0.757533729,   1.04027987
    127,   1.20904922, -0.395972908,  0.741890073
    128,   1.39971304, -0.415641129,  0.182653084
    129,   1.00668502, -0.791568816,  0.673532605
    130,  0.911840916,  -1.08185971,  0.184108287
    131,  0.146133304, -0.979869306,   1.03680551
    132,  0.252313852,  -1.22640908,  0.661486387
    133,  0.477048814,  -1.03753722,  0.860677063
    134,  0.548213422,  -1.22982323,  0.437674075
    135,   0.33646667,  -1.34873068,  0.211646304
    136, 0.0728828236,  -1.33175087,  0.449920267
    137,  0.675865889,  -1.23369372,  0.157864988
    138,  0.762895286,  -1.06602573,  0.566212356
    139,  0.494322687,  -1.31836689, -0.0455658287
    140,  0.500085175,  -1.31158459,  0.125650451
    141,   1.34387684, -0.433487922, -0.409945846
    142,    1.1344825, -0.838296115, -0.307775199
    143,   1.04799855, -0.454729587, -0.923528969
    144,  0.564374626, -0.475894421,  -1.26846838
    145,  0.468581557, -0.924063265, -0.997066081
    146,  0.887407899,  -1.09733033, -0.202380151
    147,  0.652271271,   -1.2483288, -0.129296616
    148,  0.888375819, -0.872278512, -0.726471186
    149,  0.716792822,  -1.12421846, -0.499352664
    150,  0.560284376,  -1.25427568, -0.334750026
    151,  0.457393289,  -1.32395101, -0.145370796
    152,  0.411227435,  -1.31671321, -0.286484689
    153,  0.126099929,  -1.39514184, -0.0325123183
    154, -0.0665910095,  -1.37666535,   0.26440838
    155, -0.169374421,  -1.38666773,  0.122238107
    156,  -0.35076943,  -1.35052359, -0.172244012
    157,  0.347408921,  -1.35096335, -0.175253242
    158,   0.51499325,  -1.29544187, -0.215636164
    159, -0.389430374,  -1.27201402, -0.474916041
    160,  0.358260304,  -1.35799718, -0.0466837063
    161, -0.280778825,  -1.37491798, 0.0286953337
    162, -0.490821689,  -1.31351972,  0.139395148
    163, -0.165531024,  -1.38538384, -0.142146528
    164,   0.15377529,  -1.37916362, -0.207551166
    165,   0.15315935,  -1.39114118, 0.0787903592
    166,  0.247970432,   -1.3786186, 0.0830683634
    167,  -0.23173213,  -1.38157701, 0.0750521198
    168, -0.301933527,  -1.36479533,  0.138008758
    169,  0.140845776,   -1.3820765,  0.194837138
    170, -0.129698381,   -1.3805294,  0.213830367
    171, -0.258215517,  -1.34002733,  0.341930151
    172,    0.2246411,  -1.32944047,  0.404952854
    173,  -0.01140319,  -1.29372573,  0.562517405
    174, -0.0267201159,  -1.37019491,  0.305364728
    175,  -1.02135289, -0.772855043,  0.675880253
    176,  0.281286776, -0.351613879,   1.40517473
    177,   1.17745125, -0.815252304,  0.194926679
    178,  -1.18812585, -0.798638105,  0.206880301
    179, -0.126927003,  -1.39470363, -0.0474856459
    180, -0.224332497,   -1.3343755, -0.387009084
    181, 0.0707242712,  -1.39861941, 0.0222017579
    182,  0.070608303,   -1.3973527, 0.0690805614
    183, -0.101245902,  -1.39586461, 0.0661376491
    184, -0.0488715768,  -1.39516962,    0.1203347
    185, -0.176264077,  -1.39066565, 0.00951042213
    186,  0.259200543,   -1.3226769, -0.408453315
    187, -0.819965899, -0.363358259,   1.17077291
    188,  0.404566407,  -1.18191493, -0.674003243
    189,  0.402121931,  -1.26319003, -0.489742935
    190,   0.04635261,  -1.39198947,  0.157621294
    191,  0.232521817,  -1.38254178, -0.0479875393
    192, -0.253479391,  -1.37938809, -0.0422647409
    193, -0.376520425,  -1.35319734, -0.0549903475
    194, -0.120335989,  -1.38850665,  0.153074071
    195, -0.0542079806,  -1.38550329,  0.210471407
    196, 0.0198073182,  -1.38157272,  0.242803648
    197,  0.364645064,  -1.35427392, 0.0929133222
    198,  0.102333114,  -1.36761951,  0.302079916
    199, -0.224503934,  -1.36986589,  0.211074412
    200, -0.119121924,  -1.37027431,  0.282014012
    201, -0.902776659,  -1.09030163, -0.173982933
    202, -0.175139993, -0.975770593,   1.03657341
    203,   0.41199553,  -1.31275141,  0.304624051
    204,  0.240271673,  -1.36569083,   0.22314088
    205, -0.109255672,  -1.33985972,  0.414904207
    206, -0.182357699,  -1.35757482,  0.313899934
*Element, type=R3D4
 1,  1, 18, 40, 19
 2, 18, 17, 41, 40
 3, 17, 16, 42, 41
 4, 16, 15, 43, 42
 5, 15, 14, 44, 43
 6, 14, 13, 45, 44
 7, 13, 12, 46, 45
 8, 12, 11, 47, 46
 9, 11, 10, 48, 47
10, 10,  9, 49, 48
11,  9,  8, 50, 49
12,  8,  7, 51, 50
13,  7,  6, 52, 51
14,  6,  5, 53, 52
15,  5,  1, 19, 53
16, 19, 40, 54, 20
17, 40, 41, 55, 54
18, 41, 42, 56, 55
19, 42, 43, 57, 56
20, 43, 44, 58, 57
21, 44, 45, 59, 58
22, 45, 46, 60, 59
23, 46, 47, 61, 60
24, 47, 48, 62, 61
25, 48, 49, 63, 62
26, 49, 50, 64, 63
27, 50, 51, 65, 64
28, 51, 52, 66, 65
29, 52, 53, 67, 66
30, 53, 19, 20, 67
31, 20, 54, 27,  3
32, 54, 55, 26, 27
33, 55, 56, 25, 26
34, 56, 57, 24, 25
35, 57, 58, 23, 24
36, 58, 59, 22, 23
37, 59, 60, 21, 22
38, 60, 61,  2, 21
39, 61, 62, 33,  2
40, 62, 63, 32, 33
41, 63, 64, 31, 32
42, 64, 65, 30, 31
43, 65, 66, 29, 30
44, 66, 67, 28, 29
45, 67, 20,  3, 28
46, 35, 36,  4, 34
48, 90, 91, 31, 30
49, 68, 69, 91, 70
50, 89, 90, 29, 28
51, 70, 91, 90, 89
52,  3, 27, 87, 88
53, 23, 83, 84, 24
54, 71, 72, 77, 70
55, 76, 78, 73, 74
56, 73, 72, 85, 84
57, 82, 81, 74, 83
58, 74, 73, 84, 83
59, 76, 80, 75, 79
60, 79, 77, 78, 76
61, 91, 69, 32, 31
62, 69, 75, 33, 32
63, 88, 89, 28,  3
64, 87, 86, 71, 88
65, 26, 86, 87, 27
66, 26, 25, 85, 86
67, 24, 84, 85, 25
68, 82, 83, 23, 22
69, 75, 80,  2, 33
70, 80, 76, 74, 81
71, 79, 75, 69, 68
72, 68, 70, 77, 79
73, 78, 77, 72, 73
74, 21,  2, 80, 81
75, 22, 21, 81, 82
76, 86, 85, 72, 71
77, 88, 71, 70, 89
 87, 146, 142, 177, 130
 88, 147, 146, 130, 137
 89, 177, 142, 141, 128
 90, 125, 126, 129, 127
 91,   9, 127, 128,   8
 92,  12,  13, 187, 111
 93, 120, 119, 116, 114
 94,  93,  98,  95,  92
 95,  17,  18,  92,  95
 96,  92,  39,  38,  93
 97, 189, 186,  37, 188
 98, 149, 188, 145, 148
 99, 144,  39,   1,   5
100, 143,   6,   7, 141
101,  38,  37,  97,  93
102,  39, 144, 145,  38
103, 141,   7,   8, 128
104,  12, 111, 176,  11
105, 112, 110, 175, 109
106, 124, 176, 111, 113
107, 114, 116, 115, 162
108, 201,  96,  98, 102
109,  96, 201, 108, 178
110, 175, 178, 108, 109
111,  95,  94,  16,  17
112, 159,  97,  37, 180
113, 103,  99, 100, 105
114,  37,   4, 163, 180
115, 179, 163,   4,  36
116, 185, 192, 163, 179
117,  99, 103, 201, 102
118, 101, 156, 100,  99
119, 116, 119, 112, 109
120, 127,   9,  10, 125
121, 185, 179,  36, 183
122, 205, 120, 171, 206
123, 131, 133, 126, 124
124,  10,  11, 176, 125
125, 199, 168, 167, 155
126, 173, 132, 121, 119
127, 127, 129, 177, 128
128, 153,  34,   4, 164
129, 190, 169, 198, 196
130, 131, 124, 113, 202
131, 110, 112, 202, 113
132, 119, 121, 202, 112
133, 193, 192, 161, 104
134, 103, 105, 162, 115
135,  96,  94,  95,  98
136,  18,   1,  39,  92
137,  98,  93,  97, 102
138,  15,  16,  94, 106
139, 193, 105, 100, 156
140, 171, 120, 114, 117
141, 159,  99, 102,  97
142, 115, 108, 201, 103
143, 130, 177, 129, 138
144, 110, 113, 111, 187
145,  14,  15, 106, 107
146,  13,  14, 107, 187
147, 115, 116, 109, 108
148, 107, 175, 110, 187
149, 132, 133, 131, 121
150, 173, 119, 120, 205
151, 141, 142, 148, 143
152, 124, 126, 125, 176
153, 129, 126, 133, 138
154, 133, 132, 134, 138
155, 136, 172, 132, 173
156, 181, 153, 165, 182
157, 137, 140, 139, 147
158, 172, 203, 134, 132
159, 203, 172, 204, 135
160, 137, 134, 203, 140
161, 137, 130, 138, 134
162, 146, 147, 150, 149
163,   6, 143, 144,   5
164, 143, 148, 145, 144
165, 188,  37,  38, 145
166, 189, 150, 152, 186
167, 160, 197, 166, 191
168, 151, 157, 152, 158
169, 146, 149, 148, 142
170, 139, 151, 158, 147
171, 183,  36,  35, 184
172, 101,  99, 159, 180
173, 166, 165, 153, 191
174, 168, 104, 161, 167
175, 186, 152, 157, 164
176, 156, 101, 180, 163
177, 151, 139, 160, 157
178, 104, 162, 105, 193
179, 165, 166, 204, 169
180, 117, 118, 168, 199
181, 197, 140, 203, 135
182, 167, 161, 192, 185
183, 118, 162, 104, 168
184, 200, 154, 174, 123
185, 165, 169, 190, 182
186, 157, 160, 191, 164
187, 204, 166, 197, 135
188, 136, 122, 198, 172
189, 198, 122, 174, 196
190, 205, 122, 136, 173
191, 123, 174, 122, 205
192, 170, 199, 155, 194
193, 196, 174, 154, 195
194, 107, 106, 178, 175
195, 178, 106,  94,  96
196, 181, 182,  35,  34
197, 182, 190, 184,  35
198, 155, 183, 184, 194
199, 190, 196, 195, 184
200, 185, 183, 155, 167
201, 189, 188, 149, 150
202, 200, 170, 195, 154
203, 156, 163, 192, 193
204, 195, 170, 194, 184
205, 197, 160, 139, 140
206, 198, 169, 204, 172
207, 206, 199, 170, 200
208, 199, 206, 171, 117
209, 206, 200, 123, 205
*Element, type=R3D3
47, 90, 30, 29
78, 158, 150, 147
79,  37, 164,   4
80, 117, 114, 118
81, 202, 121, 131
82, 158, 152, 150
83, 153, 164, 191
84, 118, 114, 162
85,  34, 153, 181
86, 186, 164,  37
*Node
    207, 7.37572799e-17,   1.84050536,           0.
*Nset, nset=solid-object-RefPt_, internal
207, 
*Elset, elset=_m_Surf-1_SPOS, internal, generate
   1,  209,    1
*Surface, type=ELEMENT, name=m_Surf-1
_m_Surf-1_SPOS, SPOS
*Elset, elset=solid-object, generate
   1,  209,    1
*End Part
**  
**
** ASSEMBLY
**
*Assembly, name=Assembly
**  
*Instance, name=film-1, part=film
*End Instance
**  
*Instance, name=solid-object-1, part=solid-object
          0.,     2.901754,          13.
*End Instance
**  
*Nset, nset=Set-1, instance=film-1
    1,    2,    3,    4,    5,    6,    7,    8,    9,   10,   11,   12,   13,   14,   15,   16
   17,   18,   19,   20,   21,   22,   23,   24,   25,   26,   27,   28,   29,   30,   31,   32
   33,   34,   35,   36,   37,   38,   39,   40,   41,   42,   43,   44,   45,   46,   47,   48
   49,   50,   51,   52,   53,   54,   55,   56,   57,   58,   59,   60,   61,   62,   63,   64
   65,   66,   67,   68,   69,   70,   71,   72,   73,   74,   75,   76,   77,   78,   79,   80
   81,   82,   83,   84,   85,   86,   87,   88,   89,   90,   91,   92,   93,   94,   95,   96
   97,   98,   99,  100,  101,  102,  103,  104,  105,  106,  107,  108,  109,  110,  111,  112
  113,  114,  115,  116,  117,  118,  119,  120,  121,  122,  123,  124,  125,  126,  127,  128
  129,  130,  131,  132,  133,  134,  135,  136,  137,  138,  139,  140,  141,  142,  143,  144
  145,  146,  147,  148,  149,  150,  151,  152,  153,  154,  155,  156,  157,  158,  159,  160
  161,  162,  163,  164,  165,  166,  167,  168,  169,  170,  171,  172,  173,  174,  175,  176
  177,  178,  179,  180,  181,  182,  183,  184,  185,  186,  187,  188,  189,  190,  191,  192
  193,  194,  195,  196,  197,  198,  199,  200,  201,  202,  203,  204,  205,  206,  207,  208
  209,  210,  211,  212,  213,  214,  215,  216,  217,  218,  219,  220,  221,  222,  223,  224
  225,  226,  227,  228,  229,  230,  231,  232,  233,  234,  235,  236,  237,  238,  239,  240
  241,  242,  243,  244,  245,  246,  247,  248,  249,  250,  251,  252,  253,  254,  255,  256
  257,  258,  259,  260,  261,  262,  263,  264, 1106, 1107, 1108, 1109, 1110, 1111, 1112, 1113
 1114, 1115, 1116, 1117, 1118, 1119, 1120, 1121, 1122, 1123, 1124, 1125, 1126, 1127, 1128, 1129
 1130, 1131, 1132, 1133, 1134, 1135, 1136, 1137, 1138, 1139, 1140, 1141, 1142, 1143, 1144, 1145
 1146, 1147, 1148, 1149, 1150, 1151, 1152, 1153, 1154, 1155, 1156, 1157, 1158, 1159, 1160, 1161
 1162, 1163, 1164, 1165, 1166, 1167, 1168, 1169, 1170, 1171, 1172, 1173, 1174, 1175, 1176, 1177
 1178, 1179, 1180, 1181, 1182, 1183, 1184, 1185, 1186, 1187, 1188, 1189, 1190, 1191, 1192, 1193
 1194, 1195, 1196, 1197, 1198, 1199, 1200, 1201, 1202, 1203, 1204, 1205, 1206, 1207, 1208, 1209
 1210, 1211, 1212, 1213, 1214, 1215, 1216, 1217, 1218, 1219, 1220, 1221, 1222, 1223, 1224, 1225
 1226, 1227, 1228, 1229, 1230, 1231, 1232, 1233, 1234, 1235, 1236, 1237, 1238, 1239, 1240, 1241
 1242, 1243, 1244, 1245, 1246, 1247, 1248, 1249, 1250, 1251, 1252, 1253, 1254, 1255, 1256, 1257
 1258, 1259, 1260, 1261, 1262, 1263, 1264, 1265, 1266, 1267, 1268, 1269, 1270, 1271, 1272, 1273
 1274, 1275, 1276, 1277, 1278, 1279, 1280, 1281, 1282, 1283, 1284, 1285, 1286, 1287, 1288, 1289
 1290, 1291, 1292, 1293, 1294, 1295, 1296, 1297, 1298, 1299, 1300, 1301, 1302, 1303, 1304, 1305
 1306, 1307, 1308, 1309, 1310, 1311, 1312, 1313, 1314, 1315, 1316, 1317, 1318, 1319, 1320, 1321
 1322, 1323, 1324, 1325, 1326, 1327, 1328, 1329, 1330, 1331, 1332, 1333, 1334, 1335, 1336, 1337
 1338, 1339, 1340, 1341, 1342, 1343, 1344, 1345, 1346, 1347, 1348, 1349, 1350, 1351, 1352, 1353
 1354, 1355, 1356, 1357, 1358, 1359, 1360, 1361, 1362, 1363, 1364, 1365, 1366, 1367, 1368, 1369
 1370, 1371, 1372, 1373, 1374, 1375, 1376, 1377, 1378, 1379, 1380, 1381, 1382, 1383, 1384, 1385
 1386, 1387, 1388, 1389, 1390, 1391, 1392, 1393, 1394, 1395, 1396, 1397, 1398, 1399, 1400, 1401
 1402, 1403, 1404, 1405, 1406, 1407, 1408, 1409, 1410, 1411, 1412, 1413, 1414, 1415, 1416, 1417
 1418, 1419, 1420, 1421, 1422, 1423, 1424, 1425, 1426, 1427, 1428, 1429, 1430, 1431
*Elset, elset=Set-1, instance=film-1, generate
  901,  1358,     1
*Nset, nset=Set-2, instance=solid-object-1
  4, 34, 35, 36
*Elset, elset=Set-2, instance=solid-object-1
 46,
*Nset, nset=Set-contact, instance=film-1, generate
 4294,  5724,     1
*Elset, elset=Set-contact, instance=film-1, generate
 2717,  4074,     1
*Rigid Body, ref node=solid-object-1.solid-object-RefPt_, elset=solid-object-1.solid-object
*End Assembly
** 
** MATERIALS
** 
*Material, name=pdms
*Hyperelastic, n=2
 -0.697, 1.08,   0., 2.52,   0.,   0.,   0.
** 
** INTERACTION PROPERTIES
** 
*Surface Interaction, name=IntProp-1
1.,
*Surface Behavior, pressure-overclosure=HARD
** 
** INTERACTIONS
** 
** Interaction: Int-1
*Contact Pair, interaction=IntProp-1, type=SURFACE TO SURFACE
film-1.s_Surf-1, solid-object-1.m_Surf-1
** ----------------------------------------------------------------
** 
** STEP: Step-1
** 
*Step, name=Step-1, nlgeom=YES, inc=1000
*Static
0.01, 1., 1e-15, 1.
** 
** BOUNDARY CONDITIONS
** 
** Name: BC-1 Type: 对称/反对称/完全固定
*Boundary
Set-1, ENCASTRE
** Name: BC-2 Type: 位移/转角
*Boundary
Set-2, 1, 1
Set-2, 2, 2, -1.5
Set-2, 3, 3
Set-2, 4, 4
Set-2, 5, 5
Set-2, 6, 6
** 
** OUTPUT REQUESTS
** 
*Restart, write, frequency=0
** 
** FIELD OUTPUT: F-Output-1
** 
*Output, field, time interval=0.01
*Node Output
CF, RF, U
*Element Output, directions=YES
LE, PE, PEEQ, PEMAG, S
*Contact Output
CDISP, CFORCE, CSTRESS
** 
** HISTORY OUTPUT: H-Output-1
** 
*Output, history, variable=PRESELECT
*End Step
